 vasp.6.1.0 28Jan20 (build Jan 13 2021 21:44:47) complex

 executed on             LinuxIFC date 2021.09.12  19:37:21

 INCAR:
 POTCAR:    PAW_PBE Ag 02Apr2005
 POTCAR:    PAW_PBE Bi 08Apr2002
 POTCAR:    PAW_PBE I 08Apr2002
|           W    W    AA    RRRRR   N    N  II  N    N   GGGG   !!!           |
|           W    W   A  A   R    R  NN   N  II  NN   N  G    G  !!!           |
|           W    W  A    A  R    R  N N  N  II  N N  N  G       !!!           |
|           W WW W  AAAAAA  RRRRR   N  N N  II  N  N N  G  GGG   !            |
|           WW  WW  A    A  R   R   N   NN  II  N   NN  G    G                |
|           W    W  A    A  R    R  N    N  II  N    N   GGGG   !!!           |
|     For optimal performance we recommend to set                             |
|       NCORE = 4 - approx SQRT(number of cores).                             |
|     This setting can greatly improve the performance of VASP for DFT.       |
|     The default, NCORE=1 might be grossly inefficient on modern             |
|     multi-core architectures or massively parallel machines. Do your        |
|     own testing!!!!                                                         |
|     Unfortunately you need to use the default for GW and RPA                |
|     calculations (for HF NCORE is supported but not extensively tested      |
|     yet).                                                                   |

 POTCAR:    PAW_PBE Ag 02Apr2005
   VRHFIN =Ag : s1 d10

   TITEL  = PAW_PBE Ag 02Apr2005
   POMASS =  107.868; ZVAL   =   11.000    mass and valenz
   ENMAX  =  249.844; ENMIN  =  187.383 eV

 POTCAR:    PAW_PBE Bi 08Apr2002
   VRHFIN =Bi:

[...]

 POTCAR:    PAW_PBE I 08Apr2002
   VRHFIN =I : s2p5

   TITEL  = PAW_PBE I 08Apr2002
   POMASS =  126.904; ZVAL   =    7.000    mass and valenz
   ENMAX  =  175.647; ENMIN  =  131.735 eV

  PAW_PBE Ag 02Apr2005                  :
  PAW_PBE Bi 08Apr2002                  :
  PAW_PBE I 08Apr2002                   :

 POSCAR: Generation Seed Number
  positions in direct lattice
  velocities in cartesian coordinates
 exchange correlation table for  LEXCH =        8
   RHO(1)=    0.500       N(1)  =     2000
   RHO(2)=  100.500       N(2)  =     4000

 ion  position               nearest neighbor table
   1  0.005  0.977  0.010-  33 2.94  27 2.99  17 3.07  21 3.13  34 3.16  25 3.56
   2  0.775  0.751  0.024-  21 2.96  23 2.96  27 2.97  47 2.97
   3  0.003  0.496  0.498-  20 3.02  35 3.02  36 3.07  24 3.08  26 3.22  28 3.32
   4  0.247  0.998  0.253-  33 3.02  18 3.02  17 3.08  37 3.08  43 3.25  41 3.30
   5  0.488  0.023  0.496-  18 2.94  30 2.99  37 3.07  38 3.12  22 3.19  32 3.56
   6  0.760  0.523  0.256-  35 2.94  47 2.99  24 3.07  23 3.14  39 3.15  45 3.56
   7  0.476  0.250  0.725-  38 2.96  40 2.96  30 2.97  42 2.97
   8  0.245  0.477  0.741-  20 2.94  42 2.99  36 3.07  19 3.14  40 3.14  44 3.56
   9  0.249  0.246  0.999-  17 3.03  42 3.06  25 3.13  29 3.14  19 3.20  41 3.20
  10  0.503  0.500  0.998-  23 3.07  40 3.07  31 3.14  29 3.14  39 3.18  19 3.19
  11  0.000  0.250  0.250-  35 3.11  41 3.11  33 3.11  26 3.12  25 3.14  45 3.14
  12  0.001  0.746  0.751-  36 3.03  27 3.06  44 3.12  48 3.14  34 3.20  28 3.20
  13  0.748  1.000  0.752-  38 3.07  21 3.07  46 3.14  48 3.14  22 3.18  34 3.18
  14  0.502  0.754  0.252-  37 3.03  47 3.05  32 3.12  31 3.14  39 3.20  43 3.20
  15  0.748  0.253  0.499-  24 3.03  30 3.05  45 3.12  46 3.14  22 3.19  26 3.20
  16  0.249  0.750  0.500-  28 3.11  18 3.11  20 3.11  43 3.11  44 3.14  32 3.14
  17  0.244  0.008  0.011-   9 3.03   1 3.07   4 3.08
  18  0.259  0.994  0.490-   5 2.94   4 3.02  16 3.11
  19  0.252  0.498  0.987-   8 3.14  10 3.19   9 3.20
  20  0.240  0.505  0.511-   8 2.94   3 3.02  16 3.11
  21  0.759  0.981  0.992-   2 2.96  13 3.07   1 3.13
  22  0.738  0.002  0.502-  13 3.18   5 3.19  15 3.19
  23  0.743  0.520  0.009-   2 2.96  10 3.07   6 3.14
  24  0.761  0.492  0.495-  15 3.03   6 3.07   3 3.08
  25  0.003  0.257  0.003-   9 3.13  11 3.14   1 3.56
  26  0.000  0.243  0.495-  11 3.12  15 3.20   3 3.22
  27  0.006  0.742  0.992-   2 2.97   1 2.99  12 3.06
  28  0.005  0.757  0.500-  16 3.11  12 3.20   3 3.32
  29  0.496  0.253  0.009-  10 3.14   9 3.14
  30  0.508  0.257  0.494-   7 2.97   5 2.99  15 3.05
  31  0.491  0.747  0.005-  10 3.14  14 3.14
  32  0.497  0.743  0.497-  14 3.12  16 3.14   5 3.56
  33  0.010  0.006  0.240-   1 2.94   4 3.02  11 3.11
  34  0.998  0.998  0.762-   1 3.16  13 3.18  12 3.20
  35  0.990  0.494  0.260-   6 2.94   3 3.02  11 3.11
  36  0.005  0.508  0.739-  12 3.03   3 3.07   8 3.07
  37  0.489  0.992  0.256-  14 3.03   5 3.07   4 3.08
  38  0.507  0.019  0.740-   7 2.96  13 3.07   5 3.12
  39  0.513  0.503  0.248-   6 3.15  10 3.18  14 3.20
  40  0.491  0.480  0.757-   7 2.96  10 3.07   8 3.14
  41  0.245  0.258  0.250-  11 3.11   9 3.20   4 3.30
  42  0.245  0.242  0.758-   7 2.97   8 2.99   9 3.06
  43  0.250  0.743  0.255-  16 3.11  14 3.20   4 3.25
  44  0.247  0.757  0.747-  12 3.12  16 3.14   8 3.56
  45  0.753  0.243  0.253-  15 3.12  11 3.14   6 3.56
  46  0.759  0.247  0.746-  13 3.14  15 3.14
  47  0.742  0.758  0.256-   2 2.97   6 2.99  14 3.05
  48  0.754  0.753  0.741-  13 3.14  12 3.14

  LATTYP: Found a triclinic cell.
 ALAT       =    17.9699452594
 B/A-ratio  =     0.7071014500
 C/A-ratio  =     1.0000398695
 COS(alpha) =     0.0000114324
 COS(beta)  =     0.5000623246
 COS(gamma) =     0.7069949039

  Lattice vectors:

 A1 = (   0.0001614838,  12.7058177873, -12.7075224555)
 A2 = (   0.0011090872,  12.7065742480,   0.0011578928)
 A3 = (  12.7068609500,   0.0002543124, -12.7074925569)

Analysis of symmetry for initial positions (statically):
 Subroutine PRICEL returns:
 Original cell was already a primitive cell.

 Routine SETGRP: Setting up the symmetry group for a
 triclinic supercell.

 Subroutine GETGRP returns: Found  1 space group operations
 (whereof  1 operations were pure point group operations)
 out of a pool of  2 trial point group operations.

The static configuration has the point symmetry C_1 .

Analysis of symmetry for dynamics (positions and initial velocities):
 Subroutine PRICEL returns:
 Original cell was already a primitive cell.

 Routine SETGRP: Setting up the symmetry group for a
 triclinic supercell.

 Subroutine GETGRP returns: Found  1 space group operations
 (whereof  1 operations were pure point group operations)
 out of a pool of  2 trial point group operations.

The dynamic configuration has the point symmetry C_1 .

 Subroutine INISYM returns: Found  1 space group operations
 (whereof  1 operations are pure point group operations),
 and found     1 'primitive' translations

                                     Primitive cell

  volume of cell :    2052.1051

  direct lattice vectors                    reciprocal lattice vectors
    12.707808553  0.001010773  0.001187791     0.078691775 -0.000006868 -0.000005867
     0.001109087 12.706574248  0.001157893    -0.000006259  0.078699419 -0.000004684
     0.000947603  0.000756461 12.708680348    -0.000007354 -0.000007170  0.078686377

  length of vectors
    12.707808649 12.706574349 12.708680406     0.078691776  0.078699420  0.078686378

  position of ions in fractional coordinates (direct lattice)
     0.004697653  0.976651134  0.010460694
     0.775344715  0.750938075  0.024484908
     0.002829255  0.496328740  0.498035931
     0.246873644  0.998272510  0.252751555
     0.488370249  0.023193275  0.495614701
     0.759932728  0.523273346  0.255630734
     0.475759844  0.249765984  0.724907859
     0.244605027  0.477006385  0.740504387
     0.248740160  0.246341529  0.998583007
     0.502653447  0.500125094  0.997561150
     0.000053839  0.250146926  0.250094847
     0.001032797  0.746315256  0.751193362
     0.748010530  0.999983044  0.751812647
     0.501520619  0.753677829  0.251763772
     0.748440513  0.253395479  0.498742223
     0.249333762  0.749753120  0.500117692
     0.244254299  0.008022398  0.010912686
     0.259007919  0.994177884  0.490249124
     0.252185406  0.497567427  0.986907644
     0.239836982  0.505323035  0.510679485
     0.759113483  0.980737149  0.992499833
     0.738213637  0.002312559  0.501835009
     0.742938749  0.520446874  0.009033931
     0.760553030  0.491839310  0.494995463
     0.002924269  0.256737800  0.003354564
     0.000358977  0.242726019  0.495205965
     0.006203297  0.742292333  0.991727352
     0.004852226  0.757357939  0.499836358
     0.495719232  0.253366560  0.009361772
     0.508171003  0.257390546  0.493815075
     0.490667142  0.746674578  0.004642687
     0.496595840  0.743436701  0.497333873
     0.009697801  0.005708615  0.240125366
     0.998082517  0.997581832  0.762436669
     0.989615476  0.494495265  0.260473570
     0.004846181  0.507898109  0.739466468
     0.488885033  0.992007825  0.256088272
     0.507357777  0.019466140  0.740336381
     0.512753391  0.502508441  0.247929867
     0.491448346  0.479993081  0.757156104
     0.244705326  0.257740742  0.250147612
     0.244532973  0.242368480  0.758197185
     0.249645663  0.742544562  0.255196182
     0.246664037  0.756767248  0.747058798
     0.752847349  0.243268689  0.253234714
     0.758817890  0.246536204  0.745893186
     0.741783926  0.757791193  0.255674060
     0.753955792  0.753389392  0.741062652

  ion indices of the primitive-cell ions
   primitive index   ion index
                 1           1
                 2           2
                 3           3
                 4           4
                 5           5
                 6           6
                 7           7
                 8           8
                 9           9
                10          10
                11          11
                12          12
                13          13
                14          14
                15          15
                16          16
                17          17
                18          18
                19          19
                20          20
                21          21
                22          22
                23          23
                24          24
                25          25
                26          26
                27          27
                28          28
                29          29
                30          30
                31          31
                32          32
                33          33
                34          34
                35          35
                36          36
                37          37
                38          38
                39          39
                40          40
                41          41
                42          42
                43          43
                44          44
                45          45
                46          46
                47          47
                48          48

 KPOINTS: agbii

Automatic generation of k-mesh.
Space group operators:
 irot       det(A)        alpha          n_x          n_y          n_z        tau_x        tau_y        tau_z
    1     1.000000     0.000001     1.000000     0.000000     0.000000     0.000000     0.000000     0.000000
[...]
   3.10846548  3.08049380  9.63625675
   3.17351466  9.43564298  3.24436302
   3.13610660  9.61673367  9.49530070
   9.56754976  3.09206418  3.21945494
   9.64389272  3.13396181  9.48050486
   9.42753085  9.62987324  3.25103842
   9.58266367  9.57432091  9.41969625

 k-point   1 :   0.0000 0.0000 0.0000  plane waves:   18349
 k-point   2 :   0.2500-0.0000 0.0000  plane waves:   18465
 k-point   3 :   0.5000-0.0000 0.0000  plane waves:   18464
 k-point   4 :  -0.0000 0.2500 0.0000  plane waves:   18465
 k-point   5 :   0.2500 0.2500-0.0000  plane waves:   18429
 k-point   6 :   0.5000 0.2500-0.0000  plane waves:   18418
 k-point   7 :  -0.2500 0.2500 0.0000  plane waves:   18429
 k-point   8 :  -0.0000 0.5000-0.0000  plane waves:   18464
 k-point   9 :   0.2500 0.5000 0.0000  plane waves:   18418
 k-point  10 :   0.5000 0.5000 0.0000  plane waves:   18400
 k-point  11 :   0.0000 0.0000 0.2500  plane waves:   18465
 k-point  12 :   0.2500 0.0000 0.2500  plane waves:   18429
 k-point  13 :   0.5000 0.0000 0.2500  plane waves:   18418
 k-point  14 :  -0.2500 0.0000 0.2500  plane waves:   18429
 k-point  15 :  -0.0000 0.2500 0.2500  plane waves:   18429
 k-point  16 :   0.2500 0.2500 0.2500  plane waves:   18430
 k-point  17 :   0.5000 0.2500 0.2500  plane waves:   18425
 k-point  18 :  -0.2500 0.2500 0.2500  plane waves:   18430
 k-point  19 :  -0.0000 0.5000 0.2500  plane waves:   18418
 k-point  20 :   0.2500 0.5000 0.2500  plane waves:   18429
 k-point  21 :   0.5000 0.5000 0.2500  plane waves:   18432
 k-point  22 :  -0.2500 0.5000 0.2500  plane waves:   18427
 k-point  23 :  -0.0000-0.2500 0.2500  plane waves:   18429
 k-point  24 :   0.2500-0.2500 0.2500  plane waves:   18430
 k-point  25 :   0.5000-0.2500 0.2500  plane waves:   18428
 k-point  26 :  -0.2500-0.2500 0.2500  plane waves:   18430
 k-point  27 :   0.0000 0.0000 0.5000  plane waves:   18464
 k-point  28 :   0.2500 0.0000 0.5000  plane waves:   18418
 k-point  29 :   0.5000 0.0000 0.5000  plane waves:   18400
 k-point  30 :   0.0000 0.2500 0.5000  plane waves:   18418
 k-point  31 :   0.2500 0.2500 0.5000  plane waves:   18429
 k-point  32 :   0.5000 0.2500 0.5000  plane waves:   18432
 k-point  33 :  -0.2500 0.2500 0.5000  plane waves:   18430
 k-point  34 :  -0.0000 0.5000 0.5000  plane waves:   18400
 k-point  35 :   0.2500 0.5000 0.5000  plane waves:   18432
 k-point  36 :   0.5000 0.5000 0.5000  plane waves:   18336

 maximum and minimum number of plane-waves per node :     18465    18336

 maximum number of plane-waves:     18465
 maximum index in each direction:
   IXMAX=   16   IYMAX=   16   IZMAX=   16
   IXMIN=  -16   IYMIN=  -16   IZMIN=  -16

 serial   3D FFT for wavefunctions
 parallel 3D FFT for charge:
    minimum data exchange during FFTs selected (reduces bandwidth)

 Broyden mixing: mesh for mixing (old mesh)
   NGX = 33   NGY = 33   NGZ = 33
  (NGX  =100   NGY  =100   NGZ  =100)
  gives a total of  35937 points

 initial charge density was supplied:
 number of electron     352.0000369 magnetization
 keeping initial charge density in first step

 Maximum index for augmentation-charges         5632 (set IRDMAX)

 First call to EWALD:  gamma=   0.139
 Maximum number of real-space cells 3x 3x 3
 Maximum number of reciprocal cells 3x 3x 3

--------------------------------------- Iteration      1(   1)  ---------------------------------------

 BZINTS: Fermi energy:    2.096010;  352.000000 electrons
         Band energy:-0.746539E+03;  BLOECHL correction:    0.000000

 eigenvalue-minimisations  : 10360
 total energy-change (2. order) :-0.1199668E+03  (-0.2562536E-06)
 number of electron     352.0000369 magnetization
 augmentation part      -23.1242107 magnetization

 Broyden mixing:
  rms(total) = 0.65065E-03    rms(broyden)= 0.65062E-03
  rms(prec ) = 0.77117E-03
  weight for this iteration     100.00

 Free energy of the ion-electron system (eV)
  alpha Z        PSCENC =       226.93689336
  Ewald energy   TEWEN  =    -13913.39301505
  -Hartree energ DENC   =     -6048.91818095
  -exchange      EXHF   =         0.00000000
  -V(xc)+E(xc)   XCENC  =     -1392.25923652
  PAW double counting   =     22651.61010222   -20509.12802786
  entropy T*S    EENTRO =         0.00000000
  eigenvalues    EBANDS =      -746.53908090
  atomic energy  EATOM  =     19611.72375700
  Solvation  Ediel_sol  =         0.00000000
  free energy    TOTEN  =      -119.96678871 eV

  energy without entropy =     -119.96678871  energy(sigma->0) =     -119.96678871

--------------------------------------- Iteration      1(   2)  ---------------------------------------

[...]

 eigenvalue-minimisations  :  8216
 total energy-change (2. order) : 0.2278466E-07  (-0.1125625E-06)
 number of electron     352.0000369 magnetization
 augmentation part      -23.1242107 magnetization

 Free energy of the ion-electron system (eV)
  alpha Z        PSCENC =       226.93689336
  Ewald energy   TEWEN  =    -13913.39301505
  -Hartree energ DENC   =     -6048.92107821
  -exchange      EXHF   =         0.00000000
  -V(xc)+E(xc)   XCENC  =     -1392.25872382
  PAW double counting   =     22651.17529913   -20508.69403759
  entropy T*S    EENTRO =         0.00000000
  eigenvalues    EBANDS =      -746.53588351
  atomic energy  EATOM  =     19611.72375700
  Solvation  Ediel_sol  =         0.00000000
  free energy    TOTEN  =      -119.96678869 eV

  energy without entropy =     -119.96678869  energy(sigma->0) =     -119.96678869

 average (electrostatic) potential at core
  the test charge radii are     1.1249  1.4024  1.1875
  (the norm of the test charge is              1.0000)
       1 -75.0260       2 -75.1498       3 -74.9682       4 -74.9689       5 -75.0277
       6 -75.0235       7 -75.1505       8 -75.0229       9 -65.4951      10 -65.4388
      11 -65.4711      12 -65.4949      13 -65.4387      14 -65.4949      15 -65.4965
      16 -65.4684      17 -93.0454      18 -92.9710      19 -93.1532      20 -92.9733
      21 -93.0576      22 -93.1463      23 -93.0509      24 -93.0387      25 -93.3081
      26 -93.2957      27 -93.1890      28 -93.2749      29 -93.2894      30 -93.1987
      31 -93.2871      32 -93.3012      33 -92.9725      34 -93.1518      35 -92.9695
      36 -93.0442      37 -93.0455      38 -93.0624      39 -93.1520      40 -93.0494
      41 -93.2775      42 -93.1869      43 -93.2866      44 -93.3075      45 -93.3045
      46 -93.2937      47 -93.1915      48 -93.2931

 E-fermi :   2.0959     XC(G=0):  -7.8223     alpha+bet : -7.7999

 k-point     1 :       0.0000    0.0000    0.0000
  band No.  band energies     occupation
      1     -10.8145      2.00000
      2     -10.6835      2.00000
      3     -10.6373      2.00000
      4     -10.5022      2.00000
      5     -10.4514      2.00000
      6     -10.2252      2.00000
      7     -10.1907      2.00000
      8     -10.0105      2.00000
      9      -9.8594      2.00000
     10      -9.8501      2.00000
     11      -9.8364      2.00000
     12      -9.8143      2.00000
     13      -9.8083      2.00000
     14      -9.7773      2.00000
     15      -9.7744      2.00000
     16      -9.7065      2.00000
     17      -9.6959      2.00000
     18      -9.6787      2.00000
     19      -9.6758      2.00000
     20      -9.6749      2.00000
     21      -9.6496      2.00000
     22      -9.6255      2.00000
     23      -9.6202      2.00000
     24      -9.5935      2.00000
     25      -9.5811      2.00000
     26      -9.5720      2.00000
     27      -9.5563      2.00000
     28      -9.5288      2.00000
     29      -9.5217      2.00000
     30      -9.5172      2.00000
     31      -9.5106      2.00000
     32      -9.4781      2.00000
     33      -8.1854      2.00000
     34      -8.0877      2.00000
     35      -8.0749      2.00000
     36      -7.8466      2.00000
     37      -7.8211      2.00000
     38      -7.6134      2.00000
     39      -7.5971      2.00000
     40      -7.5952      2.00000
     41      -1.7916      2.00000
     42      -1.7327      2.00000
     43      -1.6841      2.00000
     44      -1.6757      2.00000
     45      -1.6247      2.00000
     46      -1.5567      2.00000
     47      -1.4968      2.00000
     48      -1.4418      2.00000
     49      -1.4389      2.00000
     50      -1.4038      2.00000
     51      -1.4005      2.00000
     52      -1.3607      2.00000
     53      -1.3260      2.00000
     54      -1.2897      2.00000
     55      -1.2829      2.00000
     56      -1.2470      2.00000
     57      -1.2012      2.00000
     58      -1.1963      2.00000
     59      -1.1238      2.00000
     60      -1.0755      2.00000
[...]
    197       4.8354      0.00000
    198       4.8650      0.00000
    199       4.8710      0.00000
    200       4.9852      0.00000
    201       5.1110      0.00000
    202       5.3034      0.00000
    203       5.6133      0.00000
    204       5.7529      0.00000
    205       5.9584      0.00000
    206       5.9793      0.00000
    207       5.9915      0.00000
    208       6.0245      0.00000
    209       7.1863      0.00000
    210       7.2903      0.00000
    211       7.3029      0.00000

[...]

 k-point    36 :       0.5000    0.5000    0.5000
  band No.  band energies     occupation
      1     -10.7388      2.00000
      2     -10.7365      2.00000
      3     -10.6099      2.00000
      4     -10.6090      2.00000
      5     -10.3542      2.00000
      6     -10.3527      2.00000
      7     -10.0856      2.00000
      8     -10.0840      2.00000
      9      -9.8764      2.00000
     10      -9.8735      2.00000
     11      -9.7845      2.00000
     12      -9.7816      2.00000
     13      -9.7583      2.00000
     14      -9.7572      2.00000
     15      -9.7177      2.00000
     16      -9.7172      2.00000
     17      -9.6948      2.00000
     18      -9.6930      2.00000
     19      -9.6707      2.00000
     20      -9.6682      2.00000
     21      -9.6653      2.00000
     22      -9.6638      2.00000
     23      -9.6023      2.00000
     24      -9.6017      2.00000
     25      -9.5808      2.00000
     26      -9.5805      2.00000
     27      -9.5541      2.00000
     28      -9.5515      2.00000
     29      -9.5191      2.00000
     30      -9.5171      2.00000
     31      -9.5096      2.00000
     32      -9.5061      2.00000
     33      -8.1629      2.00000
     34      -8.1611      2.00000
     35      -7.9691      2.00000
     36      -7.9685      2.00000
     37      -7.7302      2.00000
     38      -7.7294      2.00000
     39      -7.5534      2.00000
     40      -7.5521      2.00000
     41      -1.7516      2.00000
     42      -1.7498      2.00000
     43      -1.6485      2.00000
     44      -1.6462      2.00000
     45      -1.6031      2.00000
     46      -1.5991      2.00000
     47      -1.5121      2.00000
     48      -1.5084      2.00000
     49      -1.4553      2.00000
     50      -1.4548      2.00000
     51      -1.4279      2.00000
     52      -1.4256      2.00000
     53      -1.3481      2.00000
     54      -1.3465      2.00000
     55      -1.2552      2.00000
     56      -1.2517      2.00000
     57      -1.2374      2.00000
     58      -1.2325      2.00000
     59      -1.1099      2.00000
     60      -1.1075      2.00000
[...]
    197       4.9898      0.00000
    198       4.9902      0.00000
    199       5.0644      0.00000
    200       5.0679      0.00000
    201       5.5779      0.00000
    202       5.5813      0.00000
    203       5.6063      0.00000
    204       5.6088      0.00000
    205       5.6375      0.00000
    206       5.6407      0.00000
    207       5.8375      0.00000
    208       5.8388      0.00000
    209       7.2718      0.00000
    210       7.2747      0.00000
    211       7.5401      0.00000

 soft charge-density along one line, spin component           1
         0         1         2         3         4         5         6         7         8         9
 total charge-density along one line

------------------------ aborting loop because EDIFF is reached ----------------------------------------

 total charge

# of ion       s       p       d       tot
    1        0.241   0.152   9.320   9.713
    2        0.253   0.158   9.312   9.723
    3        0.239   0.147   9.323   9.709
    4        0.238   0.147   9.323   9.708
    5        0.241   0.152   9.320   9.713
    6        0.241   0.152   9.320   9.713
    7        0.252   0.158   9.313   9.723
    8        0.241   0.151   9.320   9.713
    9        1.834   1.401   0.138   3.373
   10        1.833   1.401   0.135   3.369
   11        1.835   1.398   0.139   3.372
   12        1.834   1.401   0.138   3.373
   13        1.833   1.401   0.136   3.370
   14        1.834   1.401   0.138   3.373
   15        1.834   1.401   0.138   3.374
   16        1.835   1.398   0.139   3.372
   17        1.516   2.743   0.015   4.274
   18        1.513   2.748   0.016   4.277
   19        1.517   2.746   0.013   4.276
   20        1.513   2.748   0.016   4.277
   21        1.514   2.743   0.015   4.273
   22        1.518   2.745   0.012   4.275
   23        1.515   2.743   0.015   4.272
   24        1.516   2.744   0.015   4.274
   25        1.519   2.742   0.012   4.272
   26        1.518   2.742   0.013   4.273
   27        1.514   2.742   0.017   4.274
   28        1.518   2.743   0.012   4.273
   29        1.518   2.742   0.011   4.271
   30        1.514   2.742   0.017   4.274
   31        1.518   2.742   0.011   4.271
   32        1.518   2.742   0.012   4.272
   33        1.513   2.748   0.016   4.277
   34        1.517   2.745   0.013   4.275
   35        1.513   2.748   0.016   4.277
   36        1.516   2.743   0.015   4.274
   37        1.516   2.743   0.015   4.274
   38        1.514   2.743   0.015   4.272
   39        1.517   2.746   0.013   4.276
   40        1.515   2.743   0.015   4.272
   41        1.518   2.743   0.012   4.273
   42        1.514   2.742   0.017   4.274
   43        1.518   2.742   0.013   4.273
   44        1.519   2.742   0.012   4.272
   45        1.519   2.742   0.012   4.272
   46        1.518   2.742   0.011   4.271
   47        1.514   2.742   0.017   4.274
   48        1.518   2.742   0.011   4.271
tot         65.136 100.214  76.095 241.445

  FREE ENERGIE OF THE ION-ELECTRON SYSTEM (eV)
  free  energy   TOTEN  =      -119.96678869 eV

  energy  without entropy=     -119.96678869  energy(sigma->0) =     -119.96678869

 writing wavefunctions

 total charge

# of ion       s       p       d       tot
    1        0.241   0.152   9.320   9.713
    2        0.253   0.158   9.312   9.723
    3        0.239   0.147   9.323   9.709
    4        0.238   0.147   9.323   9.708
    5        0.241   0.152   9.320   9.713
    6        0.241   0.152   9.320   9.713
    7        0.252   0.158   9.313   9.723
    8        0.241   0.151   9.320   9.713
    9        1.834   1.401   0.138   3.373
   10        1.833   1.401   0.135   3.369
   11        1.835   1.398   0.139   3.372
   12        1.834   1.401   0.138   3.373
   13        1.833   1.401   0.136   3.370
   14        1.834   1.401   0.138   3.373
   15        1.834   1.401   0.138   3.374
   16        1.835   1.398   0.139   3.372
   17        1.516   2.743   0.015   4.274
   18        1.513   2.748   0.016   4.277
   19        1.517   2.746   0.013   4.276
   20        1.513   2.748   0.016   4.277
   21        1.514   2.743   0.015   4.273
   22        1.518   2.745   0.012   4.275
   23        1.515   2.743   0.015   4.272
   24        1.516   2.744   0.015   4.274
   25        1.519   2.742   0.012   4.272
   26        1.518   2.742   0.013   4.273
   27        1.514   2.742   0.017   4.274
   28        1.518   2.743   0.012   4.273
   29        1.518   2.742   0.011   4.271
   30        1.514   2.742   0.017   4.274
   31        1.518   2.742   0.011   4.271
   32        1.518   2.742   0.012   4.272
   33        1.513   2.748   0.016   4.277
   34        1.517   2.745   0.013   4.275
   35        1.513   2.748   0.016   4.277
   36        1.516   2.743   0.015   4.274
   37        1.516   2.743   0.015   4.274
   38        1.514   2.743   0.015   4.272
   39        1.517   2.746   0.013   4.276
   40        1.515   2.743   0.015   4.272
   41        1.518   2.743   0.012   4.273
   42        1.514   2.742   0.017   4.274
   43        1.518   2.742   0.013   4.273
   44        1.519   2.742   0.012   4.272
   45        1.519   2.742   0.012   4.272
   46        1.518   2.742   0.011   4.271
   47        1.514   2.742   0.017   4.274
   48        1.518   2.742   0.011   4.271
tot         65.136 100.214  76.095 241.445

 BZINTS: Fermi energy:    2.095945;  352.000000 electrons
         Band energy:-0.746536E+03;  BLOECHL correction:    0.000000