 vasp.6.1.0 28Jan20 (build Jan 13 2021 21:44:47) complex

 executed on             LinuxIFC date 2021.09.12  19:33:09

 INCAR:
 POTCAR:    PAW_PBE Ag 02Apr2005
 POTCAR:    PAW_PBE Bi 08Apr2002
 POTCAR:    PAW_PBE I 08Apr2002
|           W    W    AA    RRRRR   N    N  II  N    N   GGGG   !!!           |
|           W    W   A  A   R    R  NN   N  II  NN   N  G    G  !!!           |
|           W    W  A    A  R    R  N N  N  II  N N  N  G       !!!           |
|           W WW W  AAAAAA  RRRRR   N  N N  II  N  N N  G  GGG   !            |
|           WW  WW  A    A  R   R   N   NN  II  N   NN  G    G                |
|           W    W  A    A  R    R  N    N  II  N    N   GGGG   !!!           |
|     For optimal performance we recommend to set                             |
|       NCORE = 4 - approx SQRT(number of cores).                             |
|     This setting can greatly improve the performance of VASP for DFT.       |
|     The default, NCORE=1 might be grossly inefficient on modern             |
|     multi-core architectures or massively parallel machines. Do your        |
|     own testing!!!!                                                         |
|     Unfortunately you need to use the default for GW and RPA                |
|     calculations (for HF NCORE is supported but not extensively tested      |
|     yet).                                                                   |

 POTCAR:    PAW_PBE Ag 02Apr2005
   VRHFIN =Ag : s1 d10

   TITEL  = PAW_PBE Ag 02Apr2005
   POMASS =  107.868; ZVAL   =   11.000    mass and valenz
   ENMAX  =  249.844; ENMIN  =  187.383 eV

 POTCAR:    PAW_PBE Bi 08Apr2002
   VRHFIN =Bi:

[...]

 POTCAR:    PAW_PBE I 08Apr2002
   VRHFIN =I : s2p5

   TITEL  = PAW_PBE I 08Apr2002
   POMASS =  126.904; ZVAL   =    7.000    mass and valenz
   ENMAX  =  175.647; ENMIN  =  131.735 eV

  PAW_PBE Ag 02Apr2005                  :
  PAW_PBE Bi 08Apr2002                  :
  PAW_PBE I 08Apr2002                   :

 POSCAR: Generation Seed Number
  positions in direct lattice
  velocities in cartesian coordinates
 exchange correlation table for  LEXCH =        8
   RHO(1)=    0.500       N(1)  =     2000
   RHO(2)=  100.500       N(2)  =     4000

 ion  position               nearest neighbor table
   1  0.997  0.003  0.998-  25 3.02  34 3.03  33 3.07  27 3.08  21 3.22  17 3.31
   2  0.523  0.489  0.995-  29 2.94  23 2.99  40 3.07  39 3.13  31 3.18  19 3.55
   3  0.977  0.245  0.240-  25 2.94  45 2.99  33 3.07  35 3.14  26 3.16  41 3.56
   4  0.023  0.759  0.756-  34 2.94  44 2.99  27 3.07  36 3.14  28 3.16  48 3.56
   5  0.477  0.005  0.511-  38 2.94  18 2.99  30 3.07  32 3.13  37 3.17  22 3.56
   6  0.749  0.476  0.225-  39 2.96  35 2.97  23 2.97  45 2.97
   7  0.499  0.247  0.753-  29 3.02  38 3.02  30 3.07  40 3.08  42 3.26  46 3.29
   8  0.250  0.776  0.525-  28 2.96  32 2.96  18 2.96  44 2.97
   9  0.250  0.250  1.000-  17 3.11  25 3.11  42 3.11  29 3.11  41 3.14  19 3.14
  10  0.754  0.749  0.999-  27 3.03  23 3.05  48 3.12  47 3.14  31 3.19  21 3.20
  11  0.000  0.503  0.497-  28 3.07  35 3.07  20 3.14  24 3.14  26 3.19  36 3.19
  12  0.246  0.002  0.251-  33 3.03  18 3.06  41 3.12  43 3.14  37 3.19  17 3.20
  13  0.750  1.000  0.750-  46 3.11  38 3.11  34 3.11  21 3.12  22 3.14  48 3.14
  14  0.500  0.748  0.252-  32 3.07  39 3.07  43 3.13  47 3.14  37 3.18  31 3.18
  15  0.254  0.502  0.751-  40 3.03  44 3.05  19 3.12  20 3.14  36 3.20  42 3.20
  16  0.747  0.249  0.499-  30 3.03  45 3.06  22 3.13  24 3.14  26 3.19  46 3.20
  17  0.257  0.005  1.000-   9 3.11  12 3.20   1 3.31
  18  0.242  0.006  0.492-   8 2.96   5 2.99  12 3.06
  19  0.244  0.497  0.997-  15 3.12   9 3.14   2 3.55
  20  0.247  0.491  0.504-  11 3.14  15 3.14
  21  0.743  0.000  0.995-  13 3.12  10 3.20   1 3.22
  22  0.757  0.003  0.503-  16 3.13  13 3.14   5 3.56
  23  0.757  0.508  0.994-   6 2.97   2 2.99  10 3.05
  24  0.753  0.496  0.509-  11 3.14  16 3.14
  25  0.006  0.240  0.010-   3 2.94   1 3.02   9 3.11
  26  0.998  0.252  0.488-   3 3.16  11 3.19  16 3.19
  27  0.992  0.761  0.995-  10 3.03   4 3.07   1 3.08
  28  0.020  0.743  0.508-   8 2.96  11 3.07   4 3.16
  29  0.495  0.259  0.990-   2 2.94   7 3.02   9 3.11
  30  0.508  0.244  0.511-  16 3.03   5 3.07   7 3.07
  31  0.503  0.738  0.002-   2 3.18  14 3.18  10 3.19
  32  0.480  0.759  0.493-   8 2.96  14 3.07   5 3.13
  33  0.008  0.006  0.239-  12 3.03   3 3.07   1 3.07
  34  0.995  0.989  0.760-   4 2.94   1 3.03  13 3.11
  35  0.980  0.492  0.257-   6 2.97  11 3.07   3 3.14
  36  0.003  0.513  0.748-   4 3.14  11 3.19  15 3.20
  37  0.498  0.998  0.262-   5 3.17  14 3.18  12 3.19
  38  0.506  0.010  0.740-   5 2.94   7 3.02  13 3.11
  39  0.519  0.507  0.241-   6 2.96  14 3.07   2 3.13
  40  0.492  0.489  0.756-  15 3.03   2 3.07   7 3.08
  41  0.257  0.247  0.247-  12 3.12   9 3.14   3 3.56
  42  0.242  0.250  0.755-   9 3.11  15 3.20   7 3.26
  43  0.253  0.755  0.241-  14 3.13  12 3.14
  44  0.258  0.742  0.756-   8 2.97   4 2.99  15 3.05
  45  0.742  0.245  0.258-   6 2.97   3 2.99  16 3.06
  46  0.758  0.245  0.750-  13 3.11  16 3.20   7 3.29
  47  0.746  0.759  0.246-  14 3.14  10 3.14
  48  0.743  0.753  0.753-  10 3.12  13 3.14   4 3.56

  LATTYP: Found a base centered monoclinic cell.
 ALAT       =    59.6130325448
 B/A-ratio  =     0.3014449781
 C/A-ratio  =     0.6395986772
 COS(beta)  =    -0.9949397057

  Lattice vectors:

 A1 = (  12.7095959454,  25.4176767226,  12.7108724081)
 A2 = (  12.7099169204,  12.7108641483,  25.4175472538)
 A3 = ( -12.7108428748, -25.4186627379, -25.4185409193)

Analysis of symmetry for initial positions (statically):
 Subroutine PRICEL returns:
 Original cell was already a primitive cell.

 Routine SETGRP: Setting up the symmetry group for a
 base centered monoclinic supercell.

 Subroutine GETGRP returns: Found  1 space group operations
 (whereof  1 operations were pure point group operations)
 out of a pool of  4 trial point group operations.

The static configuration has the point symmetry C_1 .

Analysis of symmetry for dynamics (positions and initial velocities):
 Subroutine PRICEL returns:
 Original cell was already a primitive cell.

 Routine SETGRP: Setting up the symmetry group for a
 base centered monoclinic supercell.

 Subroutine GETGRP returns: Found  1 space group operations
 (whereof  1 operations were pure point group operations)
 out of a pool of  4 trial point group operations.

The dynamic configuration has the point symmetry C_1 .

 Subroutine INISYM returns: Found  1 space group operations
 (whereof  1 operations are pure point group operations),
 and found     1 'primitive' translations

                                     Primitive cell

  volume of cell :    2051.9276

  direct lattice vectors                    reciprocal lattice vectors
    12.706497107  0.001093528  0.001216566     0.078699897 -0.000005734 -0.000007722
     0.000925954 12.707798590  0.000993666    -0.000006772  0.078691837 -0.000006105
     0.001246929  0.000986015 12.707668511    -0.000007534 -0.000006153  0.078692643

  length of vectors
    12.706497212 12.707798662 12.707668611     0.078699898  0.078691837  0.078692643

  position of ions in fractional coordinates (direct lattice)
     0.996739089  0.002622029  0.997946029
     0.523137796  0.488999514  0.995498114
     0.976743796  0.245209825  0.239880552
     0.023055712  0.759300904  0.755685569
     0.476633185  0.004565566  0.510760327
     0.748975870  0.475795149  0.225486809
     0.499095882  0.247017829  0.752789939
     0.249765163  0.775584692  0.524593839
     0.250003568  0.249657791  0.999840906
     0.753562746  0.748505319  0.998980930
     0.000159103  0.502554711  0.497430990
     0.246421529  0.001502905  0.251097466
     0.750294821  0.999933492  0.750017272
     0.499688611  0.748204099  0.251933822
     0.253790081  0.501672812  0.751353738
     0.746570691  0.248642688  0.498744956
     0.257488333  0.005163686  0.999804819
     0.242454796  0.006390804  0.491680089
     0.243524395  0.496817851  0.996941859
     0.246586859  0.490751870  0.504316844
     0.743064091  0.000379559  0.995136781
     0.756900665  0.002830963  0.503365393
     0.757400374  0.508254209  0.994309560
     0.753440539  0.495531304  0.509181685
     0.005613303  0.239911853  0.010151949
     0.997641689  0.252093584  0.487516057
     0.991929765  0.760628426  0.995275487
     0.019845288  0.742875621  0.507951192
     0.494581175  0.259475317  0.990014194
     0.508159253  0.244137674  0.511190808
     0.502549875  0.738282149  0.001933053
     0.480015065  0.759116269  0.492545505
     0.008014600  0.005626108  0.239292603
     0.994737586  0.989056334  0.760282930
     0.979807933  0.491550437  0.257138496
     0.002515179  0.513128824  0.747976678
     0.497549950  0.998179662  0.262144534
     0.505844739  0.009540403  0.740312710
     0.518725706  0.507469283  0.240803809
     0.492071919  0.489261187  0.755974111
     0.256913403  0.247052218  0.246730369
     0.242300714  0.249914474  0.755097414
     0.253339673  0.754558201  0.240579608
     0.257824699  0.741987865  0.755545817
     0.742263464  0.244619897  0.258335978
     0.757918656  0.244615598  0.750287278
     0.746317678  0.758788895  0.245953751
     0.743275066  0.752968863  0.753413452

  ion indices of the primitive-cell ions
   primitive index   ion index
                 1           1
                 2           2
                 3           3
                 4           4
                 5           5
                 6           6
                 7           7
                 8           8
                 9           9
                10          10
                11          11
                12          12
                13          13
                14          14
                15          15
                16          16
                17          17
                18          18
                19          19
                20          20
                21          21
                22          22
                23          23
                24          24
                25          25
                26          26
                27          27
                28          28
                29          29
                30          30
                31          31
                32          32
                33          33
                34          34
                35          35
                36          36
                37          37
                38          38
                39          39
                40          40
                41          41
                42          42
                43          43
                44          44
                45          45
                46          46
                47          47
                48          48

 KPOINTS: agbii

Automatic generation of k-mesh.
Space group operators:
 irot       det(A)        alpha          n_x          n_y          n_z        tau_x        tau_y        tau_z
    1     1.000000     0.000000     1.000000     0.000000     0.000000     0.000000     0.000000     0.000000
[...]
   3.07996628  3.17687231  9.59607074
   3.22005849  9.58928789  3.05826389
   3.27767796  9.43005927  9.60227674
   9.43211719  3.10964679  3.28399405
   9.63165326  3.11009435  9.53556714
   9.48409271  9.64359509  3.12716067
   9.44605914  9.57013232  9.57578084

 k-point   1 :   0.0000 0.0000 0.0000  plane waves:   18349
 k-point   2 :   0.2500-0.0000-0.0000  plane waves:   18465
 k-point   3 :   0.5000 0.0000 0.0000  plane waves:   18464
 k-point   4 :  -0.0000 0.2500-0.0000  plane waves:   18465
 k-point   5 :  -0.0000-0.0000-0.2500  plane waves:   18465
 k-point   6 :   0.2500 0.2500-0.0000  plane waves:   18429
 k-point   7 :  -0.2500 0.0000-0.2500  plane waves:   18429
 k-point   8 :   0.5000 0.2500 0.0000  plane waves:   18418
 k-point   9 :   0.5000-0.0000-0.2500  plane waves:   18418
 k-point  10 :  -0.2500 0.2500 0.0000  plane waves:   18429
 k-point  11 :   0.2500-0.0000-0.2500  plane waves:   18429
 k-point  12 :  -0.0000 0.5000-0.0000  plane waves:   18464
 k-point  13 :   0.0000 0.0000 0.5000  plane waves:   18464
 k-point  14 :   0.2500 0.5000-0.0000  plane waves:   18418
 k-point  15 :  -0.2500 0.0000 0.5000  plane waves:   18418
 k-point  16 :   0.5000 0.5000 0.0000  plane waves:   18400
 k-point  17 :   0.5000-0.0000 0.5000  plane waves:   18400
 k-point  18 :  -0.0000 0.2500 0.2500  plane waves:   18429
 k-point  19 :   0.2500 0.2500 0.2500  plane waves:   18430
 k-point  20 :   0.5000 0.2500 0.2500  plane waves:   18422
 k-point  21 :  -0.2500 0.2500 0.2500  plane waves:   18430
 k-point  22 :   0.0000 0.5000 0.2500  plane waves:   18418
 k-point  23 :   0.0000-0.2500 0.5000  plane waves:   18418
 k-point  24 :   0.2500 0.5000 0.2500  plane waves:   18422
 k-point  25 :  -0.2500-0.2500 0.5000  plane waves:   18421
 k-point  26 :   0.5000 0.5000 0.2500  plane waves:   18432
 k-point  27 :   0.5000-0.2500 0.5000  plane waves:   18432
 k-point  28 :  -0.2500 0.5000 0.2500  plane waves:   18422
 k-point  29 :   0.2500-0.2500 0.5000  plane waves:   18424
 k-point  30 :   0.0000-0.2500 0.2500  plane waves:   18429
 k-point  31 :   0.2500-0.2500 0.2500  plane waves:   18430
 k-point  32 :  -0.2500-0.2500 0.2500  plane waves:   18430
 k-point  33 :   0.5000-0.2500 0.2500  plane waves:   18421
 k-point  34 :  -0.0000 0.5000 0.5000  plane waves:   18400
 k-point  35 :   0.2500 0.5000 0.5000  plane waves:   18432
 k-point  36 :   0.5000 0.5000 0.5000  plane waves:   18336

 maximum and minimum number of plane-waves per node :     18465    18336

 maximum number of plane-waves:     18465
 maximum index in each direction:
   IXMAX=   16   IYMAX=   16   IZMAX=   16
   IXMIN=  -16   IYMIN=  -16   IZMIN=  -16

 serial   3D FFT for wavefunctions
 parallel 3D FFT for charge:
    minimum data exchange during FFTs selected (reduces bandwidth)

 Broyden mixing: mesh for mixing (old mesh)
   NGX = 33   NGY = 33   NGZ = 33
  (NGX  =100   NGY  =100   NGZ  =100)
  gives a total of  35937 points

 initial charge density was supplied:
 number of electron     352.0000321 magnetization
 keeping initial charge density in first step

 Maximum index for augmentation-charges         5631 (set IRDMAX)

 First call to EWALD:  gamma=   0.139
 Maximum number of real-space cells 3x 3x 3
 Maximum number of reciprocal cells 3x 3x 3

--------------------------------------- Iteration      1(   1)  ---------------------------------------

 BZINTS: Fermi energy:    2.096605;  352.000000 electrons
         Band energy:-0.746340E+03;  BLOECHL correction:    0.000000

 eigenvalue-minimisations  :  9704
 total energy-change (2. order) :-0.1199670E+03  (-0.2271825E-06)
 number of electron     352.0000321 magnetization
 augmentation part      -23.1243788 magnetization

 Broyden mixing:
  rms(total) = 0.64647E-03    rms(broyden)= 0.64644E-03
  rms(prec ) = 0.76472E-03
  weight for this iteration     100.00

 Free energy of the ion-electron system (eV)
  alpha Z        PSCENC =       226.95651934
  Ewald energy   TEWEN  =    -13915.63725825
  -Hartree energ DENC   =     -6046.91043944
  -exchange      EXHF   =         0.00000000
  -V(xc)+E(xc)   XCENC  =     -1392.25079773
  PAW double counting   =     22652.41785847   -20509.92671263
  entropy T*S    EENTRO =         0.00000000
  eigenvalues    EBANDS =      -746.33995545
  atomic energy  EATOM  =     19611.72375700
  Solvation  Ediel_sol  =         0.00000000
  free energy    TOTEN  =      -119.96702871 eV

  energy without entropy =     -119.96702871  energy(sigma->0) =     -119.96702871

--------------------------------------- Iteration      1(   2)  ---------------------------------------

[...]

 eigenvalue-minimisations  :  8213
 total energy-change (2. order) :-0.1042281E-07  (-0.1091916E-06)
 number of electron     352.0000321 magnetization
 augmentation part      -23.1243788 magnetization

 Free energy of the ion-electron system (eV)
  alpha Z        PSCENC =       226.95651934
  Ewald energy   TEWEN  =    -13915.63725825
  -Hartree energ DENC   =     -6046.91162822
  -exchange      EXHF   =         0.00000000
  -V(xc)+E(xc)   XCENC  =     -1392.25024545
  PAW double counting   =     22651.97455124   -20509.48417972
  entropy T*S    EENTRO =         0.00000000
  eigenvalues    EBANDS =      -746.33854465
  atomic energy  EATOM  =     19611.72375700
  Solvation  Ediel_sol  =         0.00000000
  free energy    TOTEN  =      -119.96702872 eV

  energy without entropy =     -119.96702872  energy(sigma->0) =     -119.96702872

 average (electrostatic) potential at core
  the test charge radii are     1.1249  1.4024  1.1875
  (the norm of the test charge is              1.0000)
       1 -74.9667       2 -75.0259       3 -75.0235       4 -75.0215       5 -75.0251
       6 -75.1493       7 -74.9679       8 -75.1495       9 -65.4659      10 -65.4940
      11 -65.4383      12 -65.4920      13 -65.4693      14 -65.4361      15 -65.4946
      16 -65.4945      17 -93.2743      18 -93.1883      19 -93.3009      20 -93.2900
      21 -93.2931      22 -93.3086      23 -93.1971      24 -93.2925      25 -92.9706
      26 -93.1494      27 -93.0380      28 -93.0490      29 -92.9701      30 -93.0445
      31 -93.1474      32 -93.0545      33 -93.0435      34 -92.9666      35 -93.0529
      36 -93.1560      37 -93.1504      38 -92.9701      39 -93.0577      40 -93.0445
      41 -93.3052      42 -93.2840      43 -93.2937      44 -93.1903      45 -93.1898
      46 -93.2788      47 -93.2933      48 -93.3048

 E-fermi :   2.0966     XC(G=0):  -7.8226     alpha+bet : -7.8006

 k-point     1 :       0.0000    0.0000    0.0000
  band No.  band energies     occupation
      1     -10.8156      2.00000
      2     -10.6846      2.00000
      3     -10.6391      2.00000
      4     -10.5032      2.00000
      5     -10.4523      2.00000
      6     -10.2252      2.00000
      7     -10.1912      2.00000
      8     -10.0099      2.00000
      9      -9.8610      2.00000
     10      -9.8503      2.00000
     11      -9.8361      2.00000
     12      -9.8144      2.00000
     13      -9.8076      2.00000
     14      -9.7775      2.00000
     15      -9.7750      2.00000
     16      -9.7061      2.00000
     17      -9.6954      2.00000
     18      -9.6781      2.00000
     19      -9.6758      2.00000
     20      -9.6747      2.00000
     21      -9.6497      2.00000
     22      -9.6250      2.00000
     23      -9.6202      2.00000
     24      -9.5927      2.00000
     25      -9.5797      2.00000
     26      -9.5720      2.00000
     27      -9.5543      2.00000
     28      -9.5274      2.00000
     29      -9.5205      2.00000
     30      -9.5156      2.00000
     31      -9.5088      2.00000
     32      -9.4764      2.00000
     33      -8.1850      2.00000
     34      -8.0871      2.00000
     35      -8.0743      2.00000
     36      -7.8455      2.00000
     37      -7.8196      2.00000
     38      -7.6113      2.00000
     39      -7.5952      2.00000
     40      -7.5932      2.00000
     41      -1.7926      2.00000
     42      -1.7334      2.00000
     43      -1.6851      2.00000
     44      -1.6764      2.00000
     45      -1.6250      2.00000
     46      -1.5574      2.00000
     47      -1.4956      2.00000
     48      -1.4421      2.00000
     49      -1.4388      2.00000
     50      -1.4030      2.00000
     51      -1.4001      2.00000
     52      -1.3611      2.00000
     53      -1.3245      2.00000
     54      -1.2892      2.00000
     55      -1.2811      2.00000
     56      -1.2462      2.00000
     57      -1.2008      2.00000
     58      -1.1955      2.00000
     59      -1.1227      2.00000
     60      -1.0755      2.00000
[...]
    197       4.8380      0.00000
    198       4.8665      0.00000
    199       4.8722      0.00000
    200       4.9882      0.00000
    201       5.1095      0.00000
    202       5.3040      0.00000
    203       5.6126      0.00000
    204       5.7527      0.00000
    205       5.9568      0.00000
    206       5.9778      0.00000
    207       5.9905      0.00000
    208       6.0255      0.00000
    209       7.1869      0.00000
    210       7.2906      0.00000
    211       7.3033      0.00000

[...]

 k-point    36 :       0.5000    0.5000    0.5000
  band No.  band energies     occupation
      1     -10.7400      2.00000
      2     -10.7378      2.00000
      3     -10.6108      2.00000
      4     -10.6103      2.00000
      5     -10.3544      2.00000
      6     -10.3539      2.00000
      7     -10.0853      2.00000
      8     -10.0835      2.00000
      9      -9.8772      2.00000
     10      -9.8740      2.00000
     11      -9.7850      2.00000
     12      -9.7813      2.00000
     13      -9.7585      2.00000
     14      -9.7577      2.00000
     15      -9.7172      2.00000
     16      -9.7163      2.00000
     17      -9.6948      2.00000
     18      -9.6928      2.00000
     19      -9.6701      2.00000
     20      -9.6682      2.00000
     21      -9.6654      2.00000
     22      -9.6645      2.00000
     23      -9.6018      2.00000
     24      -9.6010      2.00000
     25      -9.5801      2.00000
     26      -9.5800      2.00000
     27      -9.5522      2.00000
     28      -9.5505      2.00000
     29      -9.5168      2.00000
     30      -9.5155      2.00000
     31      -9.5074      2.00000
     32      -9.5048      2.00000
     33      -8.1622      2.00000
     34      -8.1610      2.00000
     35      -7.9684      2.00000
     36      -7.9674      2.00000
     37      -7.7288      2.00000
     38      -7.7272      2.00000
     39      -7.5518      2.00000
     40      -7.5496      2.00000
     41      -1.7526      2.00000
     42      -1.7507      2.00000
     43      -1.6483      2.00000
     44      -1.6467      2.00000
     45      -1.6037      2.00000
     46      -1.5999      2.00000
     47      -1.5122      2.00000
     48      -1.5089      2.00000
     49      -1.4558      2.00000
     50      -1.4547      2.00000
     51      -1.4281      2.00000
     52      -1.4252      2.00000
     53      -1.3473      2.00000
     54      -1.3463      2.00000
     55      -1.2538      2.00000
     56      -1.2512      2.00000
     57      -1.2362      2.00000
     58      -1.2318      2.00000
     59      -1.1080      2.00000
     60      -1.1064      2.00000
[...]
    197       4.9930      0.00000
    198       4.9936      0.00000
    199       5.0667      0.00000
    200       5.0721      0.00000
    201       5.5778      0.00000
    202       5.5788      0.00000
    203       5.6048      0.00000
    204       5.6096      0.00000
    205       5.6340      0.00000
    206       5.6429      0.00000
    207       5.8358      0.00000
    208       5.8385      0.00000
    209       7.2700      0.00000
    210       7.2762      0.00000
    211       7.5447      0.00000

 soft charge-density along one line, spin component           1
         0         1         2         3         4         5         6         7         8         9
 total charge-density along one line

------------------------ aborting loop because EDIFF is reached ----------------------------------------

 total charge

# of ion       s       p       d       tot
    1        0.239   0.147   9.323   9.709
    2        0.241   0.151   9.320   9.713
    3        0.241   0.151   9.320   9.712
    4        0.241   0.151   9.320   9.712
    5        0.241   0.151   9.320   9.713
    6        0.252   0.158   9.313   9.722
    7        0.238   0.147   9.323   9.708
    8        0.253   0.158   9.312   9.724
    9        1.835   1.398   0.139   3.373
   10        1.834   1.402   0.139   3.374
   11        1.833   1.401   0.135   3.370
   12        1.834   1.402   0.139   3.374
   13        1.835   1.398   0.139   3.372
   14        1.833   1.402   0.136   3.371
   15        1.834   1.402   0.138   3.374
   16        1.834   1.401   0.138   3.374
   17        1.518   2.743   0.012   4.273
   18        1.514   2.742   0.017   4.274
   19        1.518   2.742   0.012   4.272
   20        1.518   2.742   0.011   4.272
   21        1.518   2.742   0.013   4.273
   22        1.519   2.742   0.012   4.272
   23        1.514   2.742   0.017   4.274
   24        1.518   2.742   0.011   4.271
   25        1.513   2.748   0.016   4.277
   26        1.517   2.746   0.013   4.275
   27        1.516   2.744   0.015   4.274
   28        1.515   2.743   0.015   4.272
   29        1.513   2.748   0.016   4.277
   30        1.516   2.743   0.015   4.274
   31        1.517   2.746   0.012   4.276
   32        1.514   2.743   0.015   4.272
   33        1.516   2.744   0.015   4.274
   34        1.513   2.748   0.016   4.276
   35        1.515   2.743   0.015   4.272
   36        1.517   2.745   0.013   4.275
   37        1.517   2.746   0.013   4.276
   38        1.513   2.748   0.016   4.276
   39        1.514   2.743   0.015   4.272
   40        1.516   2.743   0.015   4.274
   41        1.519   2.742   0.012   4.273
   42        1.518   2.742   0.013   4.273
   43        1.518   2.742   0.011   4.272
   44        1.514   2.742   0.017   4.274
   45        1.514   2.742   0.017   4.274
   46        1.518   2.743   0.012   4.273
   47        1.518   2.742   0.011   4.272
   48        1.518   2.742   0.012   4.273
tot         65.136 100.217  76.097 241.450

  FREE ENERGIE OF THE ION-ELECTRON SYSTEM (eV)
  free  energy   TOTEN  =      -119.96702872 eV

  energy  without entropy=     -119.96702872  energy(sigma->0) =     -119.96702872

 writing wavefunctions

 total charge

# of ion       s       p       d       tot
    1        0.239   0.147   9.323   9.709
    2        0.241   0.151   9.320   9.713
    3        0.241   0.151   9.320   9.712
    4        0.241   0.151   9.320   9.712
    5        0.241   0.151   9.320   9.713
    6        0.252   0.158   9.313   9.722
    7        0.238   0.147   9.323   9.708
    8        0.253   0.158   9.312   9.724
    9        1.835   1.398   0.139   3.373
   10        1.834   1.402   0.139   3.374
   11        1.833   1.401   0.135   3.370
   12        1.834   1.402   0.139   3.374
   13        1.835   1.398   0.139   3.372
   14        1.833   1.402   0.136   3.371
   15        1.834   1.402   0.138   3.374
   16        1.834   1.401   0.138   3.374
   17        1.518   2.743   0.012   4.273
   18        1.514   2.742   0.017   4.274
   19        1.518   2.742   0.012   4.272
   20        1.518   2.742   0.011   4.272
   21        1.518   2.742   0.013   4.273
   22        1.519   2.742   0.012   4.272
   23        1.514   2.742   0.017   4.274
   24        1.518   2.742   0.011   4.271
   25        1.513   2.748   0.016   4.277
   26        1.517   2.746   0.013   4.275
   27        1.516   2.744   0.015   4.274
   28        1.515   2.743   0.015   4.272
   29        1.513   2.748   0.016   4.277
   30        1.516   2.743   0.015   4.274
   31        1.517   2.746   0.012   4.276
   32        1.514   2.743   0.015   4.272
   33        1.516   2.744   0.015   4.274
   34        1.513   2.748   0.016   4.276
   35        1.515   2.743   0.015   4.272
   36        1.517   2.745   0.013   4.275
   37        1.517   2.746   0.013   4.276
   38        1.513   2.748   0.016   4.276
   39        1.514   2.743   0.015   4.272
   40        1.516   2.743   0.015   4.274
   41        1.519   2.742   0.012   4.273
   42        1.518   2.742   0.013   4.273
   43        1.518   2.742   0.011   4.272
   44        1.514   2.742   0.017   4.274
   45        1.514   2.742   0.017   4.274
   46        1.518   2.743   0.012   4.273
   47        1.518   2.742   0.011   4.272
   48        1.518   2.742   0.012   4.273
tot         65.136 100.217  76.097 241.450

 BZINTS: Fermi energy:    2.096557;  352.000000 electrons
         Band energy:-0.746339E+03;  BLOECHL correction:    0.000000