 vasp.6.1.0 28Jan20 (build Jan 13 2021 21:44:47) complex

 executed on             LinuxIFC date 2021.09.12  19:30:58

 INCAR:
 POTCAR:    PAW_PBE Ag 02Apr2005
 POTCAR:    PAW_PBE Bi 08Apr2002
 POTCAR:    PAW_PBE I 08Apr2002
|           W    W    AA    RRRRR   N    N  II  N    N   GGGG   !!!           |
|           W    W   A  A   R    R  NN   N  II  NN   N  G    G  !!!           |
|           W    W  A    A  R    R  N N  N  II  N N  N  G       !!!           |
|           W WW W  AAAAAA  RRRRR   N  N N  II  N  N N  G  GGG   !            |
|           WW  WW  A    A  R   R   N   NN  II  N   NN  G    G                |
|           W    W  A    A  R    R  N    N  II  N    N   GGGG   !!!           |
|     For optimal performance we recommend to set                             |
|       NCORE = 4 - approx SQRT(number of cores).                             |
|     This setting can greatly improve the performance of VASP for DFT.       |
|     The default, NCORE=1 might be grossly inefficient on modern             |
|     multi-core architectures or massively parallel machines. Do your        |
|     own testing!!!!                                                         |
|     Unfortunately you need to use the default for GW and RPA                |
|     calculations (for HF NCORE is supported but not extensively tested      |
|     yet).                                                                   |

 POTCAR:    PAW_PBE Ag 02Apr2005
   VRHFIN =Ag : s1 d10

   TITEL  = PAW_PBE Ag 02Apr2005
   POMASS =  107.868; ZVAL   =   11.000    mass and valenz
   ENMAX  =  249.844; ENMIN  =  187.383 eV

 POTCAR:    PAW_PBE Bi 08Apr2002
   VRHFIN =Bi:

[...]

 POTCAR:    PAW_PBE I 08Apr2002
   VRHFIN =I : s2p5

   TITEL  = PAW_PBE I 08Apr2002
   POMASS =  126.904; ZVAL   =    7.000    mass and valenz
   ENMAX  =  175.647; ENMIN  =  131.735 eV

  PAW_PBE Ag 02Apr2005                  :
  PAW_PBE Bi 08Apr2002                  :
  PAW_PBE I 08Apr2002                   :

 POSCAR: Generation Seed Number
  positions in direct lattice
  velocities in cartesian coordinates
 exchange correlation table for  LEXCH =        8
   RHO(1)=    0.500       N(1)  =     2000
   RHO(2)=  100.500       N(2)  =     4000

 ion  position               nearest neighbor table
   1  0.016  0.000  0.984-  34 2.97  17 2.97  25 3.05  27 3.05  21 3.39  33 3.40
   2  0.235  0.250  0.984-  42 2.97  25 2.97  17 3.06  19 3.06  29 3.38  41 3.39
   3  0.016  0.750  0.766-  44 2.97  27 2.97  36 3.06  34 3.06  28 3.38  48 3.38
   4  0.517  1.000  0.484-  37 2.97  22 2.97  32 3.05  30 3.05  38 3.39  18 3.40
   5  0.735  0.500  0.265-  39 2.98  24 2.98  45 3.05  47 3.05  23 3.38  35 3.39
   6  0.516  0.751  0.265-  47 2.97  32 2.98  37 3.06  39 3.06  31 3.37  43 3.39
   7  0.235  0.500  0.765-  36 2.98  19 2.98  42 3.05  44 3.05  20 3.38  40 3.39
   8  0.735  0.249  0.484-  45 2.97  30 2.97  22 3.06  24 3.07  26 3.37  46 3.39
   9  0.497  0.500  0.003-  39 3.05  19 3.05  29 3.12  31 3.12  40 3.20  23 3.21
  10  0.753  0.750  0.003-  27 3.06  47 3.06  21 3.12  23 3.12  48 3.20  31 3.20
  11  0.998  0.250  0.248-  25 3.06  45 3.06  35 3.12  33 3.12  41 3.20  26 3.20
  12  0.997  0.500  0.503-  24 3.05  36 3.06  28 3.12  26 3.12  35 3.20  20 3.21
  13  0.253  0.000  0.248-  17 3.06  37 3.06  41 3.12  43 3.12  33 3.20  18 3.20
  14  0.753  1.000  0.748-  34 3.05  22 3.06  48 3.12  46 3.12  21 3.20  38 3.20
  15  0.498  0.250  0.748-  30 3.06  42 3.06  40 3.12  38 3.12  46 3.20  29 3.20
  16  0.253  0.750  0.503-  32 3.06  44 3.06  18 3.12  20 3.12  43 3.20  28 3.20
  17  0.249  0.010  0.007-   1 2.97  13 3.06   2 3.06
  18  0.249  0.996  0.501-  16 3.12  13 3.20   4 3.40
  19  0.257  0.490  0.999-   7 2.98   9 3.05   2 3.06
  20  0.250  0.504  0.499-  16 3.12  12 3.21   7 3.38
  21  0.749  0.996  0.000-  10 3.12  14 3.20   1 3.39
  22  0.750  0.010  0.507-   4 2.97  14 3.06   8 3.06
  23  0.750  0.504  1.000-  10 3.12   9 3.21   5 3.38
  24  0.757  0.490  0.499-   5 2.98  12 3.05   8 3.07
  25  0.002  0.239  0.007-   2 2.97   1 3.05  11 3.06
  26  0.000  0.254  0.501-  12 3.12  11 3.20   8 3.37
  27  0.994  0.761  0.999-   3 2.97   1 3.05  10 3.06
  28  0.000  0.746  0.500-  12 3.12  16 3.20   3 3.38
  29  0.500  0.254  0.001-   9 3.12  15 3.20   2 3.38
  30  0.502  0.239  0.507-   8 2.97   4 3.05  15 3.06
  31  0.500  0.746  0.000-   9 3.12  10 3.20   6 3.37
  32  0.493  0.761  0.499-   6 2.98   4 3.05  16 3.06
  33  0.000  0.004  0.252-  11 3.12  13 3.20   1 3.40
  34  0.994  0.990  0.751-   1 2.97  14 3.05   3 3.06
  35  0.002  0.496  0.251-  11 3.12  12 3.20   5 3.39
  36  0.001  0.510  0.744-   7 2.98  12 3.06   3 3.06
  37  0.494  0.990  0.251-   4 2.97   6 3.06  13 3.06
  38  0.500  0.004  0.751-  15 3.12  14 3.20   4 3.39
  39  0.501  0.511  0.244-   5 2.98   9 3.05   6 3.06
  40  0.502  0.496  0.751-  15 3.12   9 3.20   7 3.39
  41  0.250  0.246  0.251-  13 3.12  11 3.20   2 3.39
  42  0.257  0.261  0.751-   2 2.97   7 3.05  15 3.06
  43  0.250  0.754  0.251-  13 3.12  16 3.20   6 3.39
  44  0.249  0.739  0.744-   3 2.97   7 3.05  16 3.06
  45  0.757  0.261  0.251-   8 2.97   5 3.05  11 3.06
  46  0.750  0.246  0.751-  14 3.12  15 3.20   8 3.39
  47  0.749  0.739  0.244-   6 2.97   5 3.05  10 3.06
  48  0.750  0.754  0.751-  14 3.12  10 3.20   3 3.38

  Warning from LATTYP: Got some problem with cell dimensions!
  Tried to take original basis but could not verify dimensions!
  LATTYP: Found a triclinic cell.
 ALAT       =    12.6821300104
 B/A-ratio  =     1.4141513106
 C/A-ratio  =     0.9999321457
 COS(alpha) =     0.0000102531
 COS(beta)  =     0.0001570430
 COS(gamma) =     0.7070167552

  Lattice vectors:

 A1 = ( -12.6821299486,  -0.0009309393,  -0.0008375649)
 A2 = ( -12.6808882113,  12.6822552723,   0.0001142161)
 A3 = (  -0.0011539339,  -0.0008557331, -12.6812693920)

Analysis of symmetry for initial positions (statically):
 Subroutine PRICEL returns:
 Original cell was already a primitive cell.

 Routine SETGRP: Setting up the symmetry group for a
 triclinic supercell.

 Subroutine GETGRP returns: Found  1 space group operations
 (whereof  1 operations were pure point group operations)
 out of a pool of  2 trial point group operations.

The static configuration has the point symmetry C_1 .

Analysis of symmetry for dynamics (positions and initial velocities):
 Subroutine PRICEL returns:
 Original cell was already a primitive cell.

 Routine SETGRP: Setting up the symmetry group for a
 triclinic supercell.

 Subroutine GETGRP returns: Found  1 space group operations
 (whereof  1 operations were pure point group operations)
 out of a pool of  2 trial point group operations.

The dynamic configuration has the point symmetry C_1 .

 Subroutine INISYM returns: Found  1 space group operations
 (whereof  1 operations are pure point group operations),
 and found     1 'primitive' translations

                                     Primitive cell

  volume of cell :    2039.7798

  direct lattice vectors                    reciprocal lattice vectors
    12.682129949  0.000930939  0.000837565     0.078851109 -0.000007719 -0.000007175
     0.001241737 12.683186212  0.000951781    -0.000005787  0.078844542 -0.000005320
     0.001153934  0.000855733 12.681269392    -0.000005207 -0.000005917  0.078856460

  length of vectors
    12.682130010 12.683186308 12.681269473     0.078851110  0.078844543  0.078856460

  position of ions in fractional coordinates (direct lattice)
     0.016476868  0.000081994  0.983810020
     0.234802531  0.249672894  0.984305867
     0.016082704  0.749601275  0.765789406
     0.516501654  0.999827090  0.484405864
     0.734832937  0.499754231  0.265359076
     0.516265503  0.750699658  0.265198479
     0.234754880  0.499568883  0.765288395
     0.735220644  0.249258073  0.484248754
     0.497286924  0.499960194  0.003381983
     0.753016330  0.750007605  0.003187608
     0.997590131  0.249852499  0.247937335
     0.997144507  0.499842446  0.503380084
     0.252834449  0.000140295  0.247987012
     0.752966618  0.999830796  0.747778913
     0.497594844  0.249920646  0.747885221
     0.252845074  0.749993299  0.503086294
     0.249420666  0.010126450  0.007238447
     0.249134592  0.995735856  0.500535390
     0.256761840  0.489644531  0.998929657
     0.249916133  0.504169400  0.499358528
     0.749392940  0.995745736  0.000379828
     0.749583888  0.009658338  0.507081306
     0.750000669  0.504167986  0.999535930
     0.756691055  0.489660489  0.498923886
     0.001672122  0.239056996  0.007232666
     0.000173922  0.253984206  0.500572472
     0.993645601  0.760839645  0.998994093
     0.000206462  0.745609510  0.500147102
     0.500477002  0.254168834  0.000544436
     0.502016728  0.239123351  0.507255591
     0.500397173  0.745849881  0.000201622
     0.493475937  0.760684805  0.498687689
     0.000415596  0.004097796  0.251675571
     0.993601276  0.989656236  0.751001399
     0.001628139  0.495594027  0.250915630
     0.001251089  0.510012669  0.744132011
     0.493647795  0.990184569  0.251354069
     0.500356211  0.004118791  0.751414938
     0.501391381  0.510518366  0.243915055
     0.501550490  0.495656257  0.750769360
     0.249847917  0.245921095  0.251042200
     0.256790972  0.260644753  0.751494040
     0.249628812  0.754345820  0.250659349
     0.248997014  0.738857696  0.743830241
     0.756760487  0.260697481  0.251482068
     0.749921882  0.245712387  0.750973318
     0.749202002  0.739125855  0.243898241
     0.749779152  0.754098881  0.750765429

  ion indices of the primitive-cell ions
   primitive index   ion index
                 1           1
                 2           2
                 3           3
                 4           4
                 5           5
                 6           6
                 7           7
                 8           8
                 9           9
                10          10
                11          11
                12          12
                13          13
                14          14
                15          15
                16          16
                17          17
                18          18
                19          19
                20          20
                21          21
                22          22
                23          23
                24          24
                25          25
                26          26
                27          27
                28          28
                29          29
                30          30
                31          31
                32          32
                33          33
                34          34
                35          35
                36          36
                37          37
                38          38
                39          39
                40          40
                41          41
                42          42
                43          43
                44          44
                45          45
                46          46
                47          47
                48          48

 KPOINTS: agbii

Automatic generation of k-mesh.
Space group operators:
[...]
   3.25784730  3.30668807  9.53036152
   3.16705097  9.56795539  3.17960578
   3.15958828  9.37193806  9.43362345
   9.59794874  3.30739440  3.18999381
   9.51177844  3.11775672  9.52415692
   9.50267639  9.37537702  3.09427030
   9.51059936  9.56571699  9.52200438

 k-point   1 :   0.0000 0.0000 0.0000  plane waves:   18325
 k-point   2 :   0.2500-0.0000 0.0000  plane waves:   18309
 k-point   3 :   0.5000-0.0000 0.0000  plane waves:   18368
 k-point   4 :  -0.0000 0.2500 0.0000  plane waves:   18309
 k-point   5 :   0.2500 0.2500 0.0000  plane waves:   18355
 k-point   6 :   0.5000 0.2500-0.0000  plane waves:   18306
 k-point   7 :  -0.2500 0.2500-0.0000  plane waves:   18355
 k-point   8 :  -0.0000 0.5000 0.0000  plane waves:   18368
 k-point   9 :   0.2500 0.5000 0.0000  plane waves:   18304
 k-point  10 :   0.5000 0.5000-0.0000  plane waves:   18256
 k-point  11 :   0.0000-0.0000 0.2500  plane waves:   18309
 k-point  12 :   0.2500-0.0000 0.2500  plane waves:   18355
 k-point  13 :   0.5000-0.0000 0.2500  plane waves:   18306
 k-point  14 :  -0.2500 0.0000 0.2500  plane waves:   18355
 k-point  15 :  -0.0000 0.2500 0.2500  plane waves:   18355
 k-point  16 :   0.2500 0.2500 0.2500  plane waves:   18331
 k-point  17 :   0.5000 0.2500 0.2500  plane waves:   18297
 k-point  18 :  -0.2500 0.2500 0.2500  plane waves:   18331
 k-point  19 :  -0.0000 0.5000 0.2500  plane waves:   18304
 k-point  20 :   0.2500 0.5000 0.2500  plane waves:   18295
 k-point  21 :   0.5000 0.5000 0.2500  plane waves:   18276
 k-point  22 :  -0.2500 0.5000 0.2500  plane waves:   18292
 k-point  23 :   0.0000-0.2500 0.2500  plane waves:   18355
 k-point  24 :   0.2500-0.2500 0.2500  plane waves:   18331
 k-point  25 :   0.5000-0.2500 0.2500  plane waves:   18295
 k-point  26 :  -0.2500-0.2500 0.2500  plane waves:   18331
 k-point  27 :   0.0000-0.0000 0.5000  plane waves:   18368
 k-point  28 :   0.2500-0.0000 0.5000  plane waves:   18309
 k-point  29 :   0.5000-0.0000 0.5000  plane waves:   18256
 k-point  30 :   0.0000 0.2500 0.5000  plane waves:   18308
 k-point  31 :   0.2500 0.2500 0.5000  plane waves:   18297
 k-point  32 :   0.5000 0.2500 0.5000  plane waves:   18276
 k-point  33 :  -0.2500 0.2500 0.5000  plane waves:   18294
 k-point  34 :  -0.0000 0.5000 0.5000  plane waves:   18256
 k-point  35 :   0.2500 0.5000 0.5000  plane waves:   18276
 k-point  36 :   0.5000 0.5000 0.5000  plane waves:   18336

 maximum and minimum number of plane-waves per node :     18368    18256

 maximum number of plane-waves:     18368
 maximum index in each direction:
   IXMAX=   16   IYMAX=   16   IZMAX=   16
   IXMIN=  -16   IYMIN=  -16   IZMIN=  -16

 serial   3D FFT for wavefunctions
 parallel 3D FFT for charge:
    minimum data exchange during FFTs selected (reduces bandwidth)

 Broyden mixing: mesh for mixing (old mesh)
   NGX = 33   NGY = 33   NGZ = 33
  (NGX  =100   NGY  =100   NGZ  =100)
  gives a total of  35937 points

 initial charge density was supplied:
 number of electron     352.0000165 magnetization
 keeping initial charge density in first step

 Maximum index for augmentation-charges         5663 (set IRDMAX)

 First call to EWALD:  gamma=   0.140
 Maximum number of real-space cells 3x 3x 3
 Maximum number of reciprocal cells 3x 3x 3

--------------------------------------- Iteration      1(   1)  ---------------------------------------

 BZINTS: Fermi energy:    1.980803;  352.000000 electrons
         Band energy:-0.731489E+03;  BLOECHL correction:    0.000000

 eigenvalue-minimisations  : 10360
 total energy-change (2. order) :-0.1201175E+03  (-0.2526082E-06)
 number of electron     352.0000165 magnetization
 augmentation part      -23.1145146 magnetization

 Broyden mixing:
  rms(total) = 0.62131E-03    rms(broyden)= 0.62129E-03
  rms(prec ) = 0.70699E-03
  weight for this iteration     100.00

 Free energy of the ion-electron system (eV)
  alpha Z        PSCENC =       228.30814584
  Ewald energy   TEWEN  =    -13994.83098827
  -Hartree energ DENC   =     -5984.35359471
  -exchange      EXHF   =         0.00000000
  -V(xc)+E(xc)   XCENC  =     -1392.20873644
  PAW double counting   =     22647.69873629   -20504.96584692
  entropy T*S    EENTRO =         0.00000000
  eigenvalues    EBANDS =      -731.48892461
  atomic energy  EATOM  =     19611.72375700
  Solvation  Ediel_sol  =         0.00000000
  free energy    TOTEN  =      -120.11745182 eV

  energy without entropy =     -120.11745182  energy(sigma->0) =     -120.11745182

--------------------------------------- Iteration      1(   2)  ---------------------------------------

[...]

 eigenvalue-minimisations  :  8202
 total energy-change (2. order) : 0.3054083E-06  (-0.9984999E-07)
 number of electron     352.0000165 magnetization
 augmentation part      -23.1145146 magnetization

 Free energy of the ion-electron system (eV)
  alpha Z        PSCENC =       228.30814584
  Ewald energy   TEWEN  =    -13994.83098827
  -Hartree energ DENC   =     -5984.35667412
  -exchange      EXHF   =         0.00000000
  -V(xc)+E(xc)   XCENC  =     -1392.20836031
  PAW double counting   =     22647.26955069   -20504.53727234
  entropy T*S    EENTRO =         0.00000000
  eigenvalues    EBANDS =      -731.48561001
  atomic energy  EATOM  =     19611.72375700
  Solvation  Ediel_sol  =         0.00000000
  free energy    TOTEN  =      -120.11745152 eV

  energy without entropy =     -120.11745152  energy(sigma->0) =     -120.11745152

 average (electrostatic) potential at core
  the test charge radii are     1.1249  1.4024  1.1875
  (the norm of the test charge is              1.0000)
       1 -75.0211       2 -75.0188       3 -75.0168       4 -75.0189       5 -75.0146
       6 -75.0155       7 -75.0145       8 -75.0172       9 -65.3984      10 -65.4008
      11 -65.4022      12 -65.3990      13 -65.4014      14 -65.4013      15 -65.4005
      16 -65.4001      17 -93.0801      18 -93.1487      19 -93.0731      20 -93.1462
      21 -93.1492      22 -93.0807      23 -93.1482      24 -93.0719      25 -93.0835
      26 -93.1570      27 -93.0811      28 -93.1535      29 -93.1537      30 -93.0807
      31 -93.1546      32 -93.0791      33 -93.1485      34 -93.0802      35 -93.1502
      36 -93.0732      37 -93.0791      38 -93.1472      39 -93.0716      40 -93.1467
      41 -93.1561      42 -93.0841      43 -93.1527      44 -93.0805      45 -93.0832
      46 -93.1526      47 -93.0811      48 -93.1554

 E-fermi :   1.9806     XC(G=0):  -7.8540     alpha+bet : -7.8470

 k-point     1 :       0.0000    0.0000    0.0000
  band No.  band energies     occupation
      1     -10.7417      2.00000
      2     -10.6390      2.00000
      3     -10.4128      2.00000
      4     -10.4118      2.00000
      5     -10.3999      2.00000
      6     -10.3974      2.00000
      7     -10.0152      2.00000
      8     -10.0013      2.00000
      9      -9.8117      2.00000
     10      -9.7225      2.00000
     11      -9.7199      2.00000
     12      -9.7115      2.00000
     13      -9.6995      2.00000
     14      -9.6966      2.00000
     15      -9.6946      2.00000
     16      -9.6773      2.00000
     17      -9.6691      2.00000
     18      -9.6553      2.00000
     19      -9.6344      2.00000
     20      -9.6221      2.00000
     21      -9.6193      2.00000
     22      -9.6062      2.00000
     23      -9.5999      2.00000
     24      -9.5507      2.00000
     25      -9.5495      2.00000
     26      -9.5450      2.00000
     27      -9.5228      2.00000
     28      -9.5216      2.00000
     29      -9.5204      2.00000
     30      -9.5173      2.00000
     31      -9.5107      2.00000
     32      -9.5099      2.00000
     33      -8.1303      2.00000
     34      -8.1177      2.00000
     35      -7.7638      2.00000
     36      -7.7633      2.00000
     37      -7.7619      2.00000
     38      -7.7614      2.00000
     39      -7.5470      2.00000
     40      -7.4326      2.00000
     41      -1.7316      2.00000
     42      -1.6629      2.00000
     43      -1.6176      2.00000
     44      -1.6075      2.00000
     45      -1.5013      2.00000
     46      -1.4624      2.00000
     47      -1.4113      2.00000
     48      -1.4059      2.00000
     49      -1.3625      2.00000
     50      -1.3617      2.00000
     51      -1.2716      2.00000
     52      -1.2688      2.00000
     53      -1.2022      2.00000
     54      -1.1972      2.00000
     55      -1.1922      2.00000
     56      -1.1871      2.00000
     57      -1.1644      2.00000
     58      -1.1626      2.00000
     59      -1.1596      2.00000
     60      -1.1432      2.00000
[...]
    197       4.8776      0.00000
    198       4.8909      0.00000
    199       4.9971      0.00000
    200       5.1011      0.00000
    201       5.2665      0.00000
    202       5.5163      0.00000
    203       5.5795      0.00000
    204       5.5837      0.00000
    205       5.9375      0.00000
    206       5.9380      0.00000
    207       5.9959      0.00000
    208       6.0165      0.00000
    209       7.2644      0.00000
    210       7.2939      0.00000
    211       7.3154      0.00000

[...]

 k-point    36 :       0.5000    0.5000    0.5000
  band No.  band energies     occupation
      1     -10.6113      2.00000
      2     -10.6102      2.00000
      3     -10.6083      2.00000
      4     -10.6080      2.00000
      5     -10.1720      2.00000
      6     -10.1710      2.00000
      7     -10.1706      2.00000
      8     -10.1702      2.00000
      9      -9.7240      2.00000
     10      -9.7233      2.00000
     11      -9.7229      2.00000
     12      -9.7220      2.00000
     13      -9.6874      2.00000
     14      -9.6864      2.00000
     15      -9.6862      2.00000
     16      -9.6859      2.00000
     17      -9.6025      2.00000
     18      -9.6018      2.00000
     19      -9.6011      2.00000
     20      -9.6009      2.00000
     21      -9.5992      2.00000
     22      -9.5985      2.00000
     23      -9.5973      2.00000
     24      -9.5971      2.00000
     25      -9.5573      2.00000
     26      -9.5559      2.00000
     27      -9.5553      2.00000
     28      -9.5520      2.00000
     29      -9.5331      2.00000
     30      -9.5319      2.00000
     31      -9.5311      2.00000
     32      -9.5277      2.00000
     33      -8.0183      2.00000
     34      -8.0171      2.00000
     35      -8.0144      2.00000
     36      -8.0138      2.00000
     37      -7.5551      2.00000
     38      -7.5548      2.00000
     39      -7.5541      2.00000
     40      -7.5539      2.00000
     41      -1.5658      2.00000
     42      -1.5633      2.00000
     43      -1.5615      2.00000
     44      -1.5603      2.00000
     45      -1.5322      2.00000
     46      -1.5306      2.00000
     47      -1.5296      2.00000
     48      -1.5292      2.00000
     49      -1.4667      2.00000
     50      -1.4662      2.00000
     51      -1.4653      2.00000
     52      -1.4649      2.00000
     53      -1.1689      2.00000
     54      -1.1686      2.00000
     55      -1.1651      2.00000
     56      -1.1627      2.00000
     57      -1.0832      2.00000
     58      -1.0820      2.00000
     59      -1.0812      2.00000
     60      -1.0805      2.00000
[...]
    197       5.0692      0.00000
    198       5.0713      0.00000
    199       5.0744      0.00000
    200       5.0749      0.00000
    201       5.5963      0.00000
    202       5.5972      0.00000
    203       5.5980      0.00000
    204       5.6038      0.00000
    205       5.7207      0.00000
    206       5.7211      0.00000
    207       5.7222      0.00000
    208       5.7259      0.00000
    209       7.5371      0.00000
    210       7.5405      0.00000
    211       7.5417      0.00000

 soft charge-density along one line, spin component           1
         0         1         2         3         4         5         6         7         8         9
 total charge-density along one line

------------------------ aborting loop because EDIFF is reached ----------------------------------------

 total charge

# of ion       s       p       d       tot
    1        0.241   0.151   9.320   9.711
    2        0.240   0.151   9.320   9.711
    3        0.240   0.151   9.320   9.711
    4        0.240   0.151   9.320   9.711
    5        0.240   0.151   9.320   9.711
    6        0.240   0.150   9.321   9.711
    7        0.240   0.151   9.320   9.711
    8        0.240   0.151   9.320   9.711
    9        1.834   1.404   0.138   3.376
   10        1.834   1.404   0.138   3.376
   11        1.834   1.404   0.138   3.376
   12        1.834   1.404   0.138   3.376
   13        1.834   1.403   0.138   3.375
   14        1.834   1.404   0.138   3.375
   15        1.834   1.404   0.138   3.375
   16        1.834   1.404   0.138   3.375
   17        1.515   2.742   0.016   4.273
   18        1.518   2.744   0.012   4.274
   19        1.515   2.743   0.016   4.273
   20        1.518   2.744   0.012   4.274
   21        1.518   2.744   0.012   4.274
   22        1.515   2.742   0.016   4.273
   23        1.518   2.744   0.012   4.274
   24        1.515   2.743   0.016   4.273
   25        1.515   2.742   0.016   4.273
   26        1.518   2.744   0.012   4.274
   27        1.515   2.742   0.016   4.273
   28        1.518   2.744   0.012   4.274
   29        1.518   2.744   0.012   4.274
   30        1.515   2.743   0.016   4.273
   31        1.518   2.744   0.012   4.274
   32        1.515   2.742   0.016   4.273
   33        1.518   2.744   0.012   4.274
   34        1.515   2.743   0.016   4.273
   35        1.518   2.744   0.012   4.274
   36        1.515   2.743   0.016   4.273
   37        1.515   2.742   0.016   4.273
   38        1.518   2.744   0.012   4.274
   39        1.515   2.743   0.016   4.273
   40        1.518   2.744   0.012   4.274
   41        1.518   2.744   0.012   4.274
   42        1.515   2.743   0.016   4.273
   43        1.518   2.744   0.012   4.274
   44        1.515   2.743   0.016   4.273
   45        1.515   2.743   0.016   4.273
   46        1.518   2.744   0.012   4.274
   47        1.515   2.743   0.016   4.273
   48        1.518   2.744   0.012   4.274
tot         65.115 100.219  76.109 241.443

  FREE ENERGIE OF THE ION-ELECTRON SYSTEM (eV)
  free  energy   TOTEN  =      -120.11745152 eV

  energy  without entropy=     -120.11745152  energy(sigma->0) =     -120.11745152

 writing wavefunctions

 total charge

# of ion       s       p       d       tot
    1        0.241   0.151   9.320   9.711
    2        0.240   0.151   9.320   9.711
    3        0.240   0.151   9.320   9.711
    4        0.240   0.151   9.320   9.711
    5        0.240   0.151   9.320   9.711
    6        0.240   0.150   9.321   9.711
    7        0.240   0.151   9.320   9.711
    8        0.240   0.151   9.320   9.711
    9        1.834   1.404   0.138   3.376
   10        1.834   1.404   0.138   3.376
   11        1.834   1.404   0.138   3.376
   12        1.834   1.404   0.138   3.376
   13        1.834   1.403   0.138   3.375
   14        1.834   1.404   0.138   3.375
   15        1.834   1.404   0.138   3.375
   16        1.834   1.404   0.138   3.375
   17        1.515   2.742   0.016   4.273
   18        1.518   2.744   0.012   4.274
   19        1.515   2.743   0.016   4.273
   20        1.518   2.744   0.012   4.274
   21        1.518   2.744   0.012   4.274
   22        1.515   2.742   0.016   4.273
   23        1.518   2.744   0.012   4.274
   24        1.515   2.743   0.016   4.273
   25        1.515   2.742   0.016   4.273
   26        1.518   2.744   0.012   4.274
   27        1.515   2.742   0.016   4.273
   28        1.518   2.744   0.012   4.274
   29        1.518   2.744   0.012   4.274
   30        1.515   2.743   0.016   4.273
   31        1.518   2.744   0.012   4.274
   32        1.515   2.742   0.016   4.273
   33        1.518   2.744   0.012   4.274
   34        1.515   2.743   0.016   4.273
   35        1.518   2.744   0.012   4.274
   36        1.515   2.743   0.016   4.273
   37        1.515   2.742   0.016   4.273
   38        1.518   2.744   0.012   4.274
   39        1.515   2.743   0.016   4.273
   40        1.518   2.744   0.012   4.274
   41        1.518   2.744   0.012   4.274
   42        1.515   2.743   0.016   4.273
   43        1.518   2.744   0.012   4.274
   44        1.515   2.743   0.016   4.273
   45        1.515   2.743   0.016   4.273
   46        1.518   2.744   0.012   4.274
   47        1.515   2.743   0.016   4.273
   48        1.518   2.744   0.012   4.274
tot         65.115 100.219  76.109 241.443

 BZINTS: Fermi energy:    1.980593;  352.000000 electrons
         Band energy:-0.731486E+03;  BLOECHL correction:    0.000000