 vasp.6.1.0 28Jan20 (build Jan 13 2021 21:44:47) complex

 executed on             LinuxIFC date 2021.09.12  19:29:50

 INCAR:
 POTCAR:    PAW_PBE Ag 02Apr2005
 POTCAR:    PAW_PBE Bi 08Apr2002
 POTCAR:    PAW_PBE I 08Apr2002
|           W    W    AA    RRRRR   N    N  II  N    N   GGGG   !!!           |
|           W    W   A  A   R    R  NN   N  II  NN   N  G    G  !!!           |
|           W    W  A    A  R    R  N N  N  II  N N  N  G       !!!           |
|           W WW W  AAAAAA  RRRRR   N  N N  II  N  N N  G  GGG   !            |
|           WW  WW  A    A  R   R   N   NN  II  N   NN  G    G                |
|           W    W  A    A  R    R  N    N  II  N    N   GGGG   !!!           |
|     For optimal performance we recommend to set                             |
|       NCORE = 4 - approx SQRT(number of cores).                             |
|     This setting can greatly improve the performance of VASP for DFT.       |
|     The default, NCORE=1 might be grossly inefficient on modern             |
|     multi-core architectures or massively parallel machines. Do your        |
|     own testing!!!!                                                         |
|     Unfortunately you need to use the default for GW and RPA                |
|     calculations (for HF NCORE is supported but not extensively tested      |
|     yet).                                                                   |

 POTCAR:    PAW_PBE Ag 02Apr2005
   VRHFIN =Ag : s1 d10

   TITEL  = PAW_PBE Ag 02Apr2005
   POMASS =  107.868; ZVAL   =   11.000    mass and valenz
   ENMAX  =  249.844; ENMIN  =  187.383 eV

 POTCAR:    PAW_PBE Bi 08Apr2002
   VRHFIN =Bi:

[...]

 POTCAR:    PAW_PBE I 08Apr2002
   VRHFIN =I : s2p5

   TITEL  = PAW_PBE I 08Apr2002
   POMASS =  126.904; ZVAL   =    7.000    mass and valenz
   ENMAX  =  175.647; ENMIN  =  131.735 eV

  PAW_PBE Ag 02Apr2005                  :
  PAW_PBE Bi 08Apr2002                  :
  PAW_PBE I 08Apr2002                   :

 POSCAR: Generation Seed Number
  positions in direct lattice
  velocities in cartesian coordinates
 exchange correlation table for  LEXCH =        8
   RHO(1)=    0.500       N(1)  =     2000
   RHO(2)=  100.500       N(2)  =     4000

 ion  position               nearest neighbor table
   1  0.250  0.253  0.002-  41 3.02  19 3.03  42 3.06  17 3.09  25 3.26  29 3.28
   2  0.775  0.740  0.005-  23 2.94  27 2.98  47 3.08  21 3.14  48 3.16  31 3.58
   3  0.000  0.724  0.776-  44 2.95  48 2.96  27 2.96  36 2.96
   4  0.275  0.012  0.245-  41 2.94  37 2.98  17 3.07  18 3.13  43 3.19  33 3.58
   5  0.500  0.025  0.475-  18 2.96  22 2.96  30 2.97  37 2.97
   6  0.749  0.498  0.247-  45 3.02  23 3.03  47 3.06  24 3.09  39 3.26  35 3.28
   7  0.225  0.494  0.760-  19 2.94  36 2.98  42 3.08  20 3.14  44 3.15  40 3.58
   8  0.725  0.255  0.488-  45 2.94  30 2.98  24 3.06  22 3.13  46 3.19  26 3.58
   9  0.004  0.999  0.002-  17 3.03  27 3.06  33 3.13  34 3.14  21 3.20  25 3.20
  10  0.500  0.500  1.000-  19 3.11  23 3.11  29 3.12  39 3.12  40 3.14  31 3.14
  11  1.000  0.250  0.250-  45 3.11  35 3.11  41 3.11  25 3.11  26 3.14  33 3.14
  12  0.996  0.498  0.501-  24 3.03  36 3.06  26 3.13  28 3.14  20 3.20  35 3.20
  13  0.750  0.998  0.748-  48 3.07  22 3.07  34 3.14  38 3.14  46 3.18  21 3.18
  14  0.503  0.751  0.249-  47 3.04  37 3.06  31 3.13  32 3.14  43 3.19  39 3.20
  15  0.497  0.251  0.749-  42 3.04  30 3.06  40 3.13  38 3.14  46 3.19  29 3.20
  16  0.250  0.752  0.502-  44 3.07  18 3.07  28 3.14  32 3.14  43 3.18  20 3.18
  17  0.242  0.011  0.007-   9 3.03   4 3.07   1 3.09
  18  0.270  0.992  0.490-   5 2.96  16 3.07   4 3.13
  19  0.256  0.491  0.989-   7 2.94   1 3.03  10 3.11
  20  0.247  0.502  0.514-   7 3.14  16 3.18  12 3.20
  21  0.753  0.986  0.998-   2 3.14  13 3.18   9 3.20
  22  0.730  0.010  0.508-   5 2.96  13 3.07   8 3.13
  23  0.744  0.511  0.009-   2 2.94   6 3.03  10 3.11
  24  0.758  0.494  0.489-  12 3.03   8 3.06   6 3.09
  25  0.993  0.250  0.005-  11 3.11   9 3.20   1 3.26
  26  0.007  0.253  0.496-  12 3.13  11 3.14   8 3.58
  27  0.008  0.759  0.006-   3 2.96   2 2.98   9 3.06
  28  0.004  0.745  0.490-  16 3.14  12 3.14
  29  0.507  0.256  0.000-  10 3.12  15 3.20   1 3.28
  30  0.492  0.256  0.509-   5 2.97   8 2.98  15 3.06
  31  0.493  0.747  0.003-  14 3.13  10 3.14   2 3.58
  32  0.496  0.740  0.495-  16 3.14  14 3.14
  33  0.993  0.004  0.247-   9 3.13  11 3.14   4 3.58
  34  0.996  0.011  0.755-  13 3.14   9 3.14
  35  0.007  0.495  0.250-  11 3.11  12 3.20   6 3.28
  36  0.992  0.494  0.741-   3 2.96   7 2.98  12 3.06
  37  0.508  0.991  0.245-   5 2.97   4 2.98  14 3.06
  38  0.504  0.005  0.760-  13 3.14  15 3.14
  39  0.493  0.500  0.244-  10 3.12  14 3.20   6 3.26
  40  0.507  0.497  0.753-  15 3.13  10 3.14   7 3.58
  41  0.244  0.241  0.239-   4 2.94   1 3.02  11 3.11
  42  0.258  0.255  0.762-  15 3.04   1 3.06   7 3.08
  43  0.253  0.762  0.252-  16 3.18  14 3.19   4 3.19
  44  0.229  0.742  0.742-   3 2.95  16 3.07   7 3.15
  45  0.756  0.261  0.259-   8 2.94   6 3.02  11 3.11
  46  0.747  0.248  0.738-  13 3.18  15 3.19   8 3.19
  47  0.741  0.738  0.245-  14 3.04   6 3.06   2 3.08
  48  0.771  0.758  0.758-   3 2.96  13 3.07   2 3.16

  LATTYP: Found a base centered monoclinic cell.
 ALAT       =    59.6980673309
 B/A-ratio  =     0.3014351179
 C/A-ratio  =     0.6395932419
 COS(beta)  =    -0.9949382968

  Lattice vectors:

 A1 = (  12.7291985560,  25.4530981211,  12.7289722300)
 A2 = (  12.7293306779,  12.7285242816,  25.4533043258)
 A3 = ( -12.7301990903, -25.4541608933, -25.4544600286)

Analysis of symmetry for initial positions (statically):
 Subroutine PRICEL returns:
 Original cell was already a primitive cell.

 Routine SETGRP: Setting up the symmetry group for a
 base centered monoclinic supercell.

 Subroutine GETGRP returns: Found  1 space group operations
 (whereof  1 operations were pure point group operations)
 out of a pool of  4 trial point group operations.

The static configuration has the point symmetry C_1 .

Analysis of symmetry for dynamics (positions and initial velocities):
 Subroutine PRICEL returns:
 Original cell was already a primitive cell.

 Routine SETGRP: Setting up the symmetry group for a
 base centered monoclinic supercell.

 Subroutine GETGRP returns: Found  1 space group operations
 (whereof  1 operations were pure point group operations)
 out of a pool of  4 trial point group operations.

The dynamic configuration has the point symmetry C_1 .

 Subroutine INISYM returns: Found  1 space group operations
 (whereof  1 operations are pure point group operations),
 and found     1 'primitive' translations

                                     Primitive cell

  volume of cell :    2060.9222

  direct lattice vectors                    reciprocal lattice vectors
    12.726461197  0.000762125  0.001173026     0.078576440 -0.000005362 -0.000006178
     0.000868412 12.725636612  0.001155703    -0.000004705  0.078581531 -0.000006562
     0.001000534  0.001062772 12.725487799    -0.000007243 -0.000007136  0.078582450

  length of vectors
    12.726461274 12.725636694 12.725487882     0.078576440  0.078581532  0.078582451

  position of ions in fractional coordinates (direct lattice)
     0.249571816  0.253023164  0.002065284
     0.774663755  0.740408729  0.005480575
     0.000014721  0.724355388  0.775697734
     0.274680005  0.011738413  0.245250571
     0.499865956  0.024730314  0.475388633
     0.749251505  0.498141135  0.246973550
     0.225242203  0.494484475  0.759720446
     0.725058713  0.255112111  0.488445523
     0.003921067  0.998820613  0.001724928
     0.499844197  0.500331063  0.999726250
     0.999832126  0.250439672  0.249842744
     0.996021152  0.498440805  0.501281809
     0.750199348  0.998078595  0.748120585
     0.503212077  0.750809554  0.248810204
     0.496640773  0.251221630  0.749357297
     0.249758521  0.751882102  0.502050026
     0.241775797  0.010598927  0.006524909
     0.270140112  0.992311143  0.490182476
     0.255635727  0.490568206  0.988947218
     0.247155389  0.501948201  0.513828997
     0.752794592  0.986153323  0.998108988
     0.729776183  0.010180930  0.507714890
     0.744079731  0.511411962  0.009269404
     0.758167992  0.493525118  0.489431988
     0.993183126  0.250100279  0.005240979
     0.006585927  0.253037074  0.496399956
     0.008346358  0.758647038  0.005797782
     0.003666103  0.745022721  0.489523738
     0.507074072  0.255639525  0.000461738
     0.491953468  0.255560579  0.509056552
     0.493161279  0.746777725  0.003351529
     0.496029469  0.739814184  0.495432118
     0.993112716  0.003772773  0.247100415
     0.996253913  0.010617786  0.755112010
     0.006679144  0.494937162  0.250014504
     0.991500942  0.494101410  0.741461133
     0.507967261  0.991003850  0.244526733
     0.503889690  0.004596543  0.760190399
     0.492985343  0.499528838  0.244479479
     0.506552004  0.496706164  0.753351721
     0.244078189  0.240755558  0.239261597
     0.258309464  0.255027197  0.761878100
     0.252765612  0.761876024  0.252177627
     0.229119145  0.741740360  0.742268447
     0.755672687  0.261041236  0.259134855
     0.747023078  0.248000199  0.738345426
     0.741493955  0.738278729  0.245082700
     0.770860677  0.757889779  0.758008274

  ion indices of the primitive-cell ions
   primitive index   ion index
                 1           1
                 2           2
                 3           3
                 4           4
                 5           5
                 6           6
                 7           7
                 8           8
                 9           9
                10          10
                11          11
                12          12
                13          13
                14          14
                15          15
                16          16
                17          17
                18          18
                19          19
                20          20
                21          21
                22          22
                23          23
                24          24
                25          25
                26          26
                27          27
                28          28
                29          29
                30          30
                31          31
                32          32
                33          33
                34          34
                35          35
                36          36
                37          37
                38          38
                39          39
                40          40
                41          41
                42          42
                43          43
                44          44
                45          45
                46          46
                47          47
                48          48

 KPOINTS: agbii

Automatic generation of k-mesh.
Space group operators:
 irot       det(A)        alpha          n_x          n_y          n_z        tau_x        tau_y        tau_z
    1     1.000000     0.000000     1.000000     0.000000     0.000000     0.000000     0.000000     0.000000
[...]
   3.28834912  3.24639000  9.69586821
   3.21772569  9.69581807  3.21026032
   2.91726271  9.44008176  9.44685406
   9.61752510  3.32276723  3.29880554
   9.50791432  3.15731443  9.39696861
   9.43748038  9.39589240  3.12051992
   9.81174506  9.64602300  9.64780517

 k-point   1 :   0.0000 0.0000 0.0000  plane waves:   18613
 k-point   2 :   0.2500 0.0000-0.0000  plane waves:   18533
 k-point   3 :   0.5000-0.0000 0.0000  plane waves:   18468
 k-point   4 :  -0.0000 0.2500 0.0000  plane waves:   18533
 k-point   5 :   0.0000-0.0000-0.2500  plane waves:   18533
 k-point   6 :   0.2500 0.2500-0.0000  plane waves:   18504
 k-point   7 :  -0.2500 0.0000-0.2500  plane waves:   18504
 k-point   8 :   0.5000 0.2500 0.0000  plane waves:   18506
 k-point   9 :   0.5000-0.0000-0.2500  plane waves:   18506
 k-point  10 :  -0.2500 0.2500-0.0000  plane waves:   18504
 k-point  11 :   0.2500 0.0000-0.2500  plane waves:   18504
 k-point  12 :  -0.0000 0.5000 0.0000  plane waves:   18464
 k-point  13 :  -0.0000 0.0000 0.5000  plane waves:   18464
 k-point  14 :   0.2500 0.5000-0.0000  plane waves:   18506
 k-point  15 :  -0.2500-0.0000 0.5000  plane waves:   18506
 k-point  16 :   0.5000 0.5000 0.0000  plane waves:   18528
 k-point  17 :   0.5000-0.0000 0.5000  plane waves:   18528
 k-point  18 :  -0.0000 0.2500 0.2500  plane waves:   18509
 k-point  19 :   0.2500 0.2500 0.2500  plane waves:   18488
 k-point  20 :   0.5000 0.2500 0.2500  plane waves:   18478
 k-point  21 :  -0.2500 0.2500 0.2500  plane waves:   18504
 k-point  22 :  -0.0000 0.5000 0.2500  plane waves:   18506
 k-point  23 :  -0.0000-0.2500 0.5000  plane waves:   18506
 k-point  24 :   0.2500 0.5000 0.2500  plane waves:   18478
 k-point  25 :  -0.2500-0.2500 0.5000  plane waves:   18478
 k-point  26 :   0.5000 0.5000 0.2500  plane waves:   18500
 k-point  27 :   0.5000-0.2500 0.5000  plane waves:   18500
 k-point  28 :  -0.2500 0.5000 0.2500  plane waves:   18478
 k-point  29 :   0.2500-0.2500 0.5000  plane waves:   18478
 k-point  30 :   0.0000-0.2500 0.2500  plane waves:   18504
 k-point  31 :   0.2500-0.2500 0.2500  plane waves:   18503
 k-point  32 :  -0.2500-0.2500 0.2500  plane waves:   18505
 k-point  33 :   0.5000-0.2500 0.2500  plane waves:   18478
 k-point  34 :  -0.0000 0.5000 0.5000  plane waves:   18528
 k-point  35 :   0.2500 0.5000 0.5000  plane waves:   18500
 k-point  36 :   0.5000 0.5000 0.5000  plane waves:   18504

 maximum and minimum number of plane-waves per node :     18613    18464

 maximum number of plane-waves:     18613
 maximum index in each direction:
   IXMAX=   16   IYMAX=   16   IZMAX=   16
   IXMIN=  -16   IYMIN=  -16   IZMIN=  -16

 serial   3D FFT for wavefunctions
 parallel 3D FFT for charge:
    minimum data exchange during FFTs selected (reduces bandwidth)

 Broyden mixing: mesh for mixing (old mesh)
   NGX = 33   NGY = 33   NGZ = 33
  (NGX  =100   NGY  =100   NGZ  =100)
  gives a total of  35937 points

 initial charge density was supplied:
 number of electron     352.0000447 magnetization
 keeping initial charge density in first step

 Maximum index for augmentation-charges         5610 (set IRDMAX)

 First call to EWALD:  gamma=   0.139
 Maximum number of real-space cells 3x 3x 3
 Maximum number of reciprocal cells 3x 3x 3

--------------------------------------- Iteration      1(   1)  ---------------------------------------

 BZINTS: Fermi energy:    2.055473;  352.000000 electrons
         Band energy:-0.758166E+03;  BLOECHL correction:    0.000000

 eigenvalue-minimisations  : 11984
 total energy-change (2. order) :-0.1199644E+03  (-0.3698265E-06)
 number of electron     352.0000447 magnetization
 augmentation part      -23.1214387 magnetization

 Broyden mixing:
  rms(total) = 0.71980E-03    rms(broyden)= 0.71977E-03
  rms(prec ) = 0.83530E-03
  weight for this iteration     100.00

 Free energy of the ion-electron system (eV)
  alpha Z        PSCENC =       225.96599555
  Ewald energy   TEWEN  =    -13872.96582283
  -Hartree energ DENC   =     -6076.65521416
  -exchange      EXHF   =         0.00000000
  -V(xc)+E(xc)   XCENC  =     -1392.37509087
  PAW double counting   =     22637.88607676   -20495.37861067
  entropy T*S    EENTRO =         0.00000000
  eigenvalues    EBANDS =      -758.16550005
  atomic energy  EATOM  =     19611.72375700
  Solvation  Ediel_sol  =         0.00000000
  free energy    TOTEN  =      -119.96440927 eV

  energy without entropy =     -119.96440927  energy(sigma->0) =     -119.96440927

--------------------------------------- Iteration      1(   2)  ---------------------------------------

[...]

 eigenvalue-minimisations  :  8208
 total energy-change (2. order) : 0.1468652E-06  (-0.1507553E-06)
 number of electron     352.0000447 magnetization
 augmentation part      -23.1214387 magnetization

 Free energy of the ion-electron system (eV)
  alpha Z        PSCENC =       225.96599555
  Ewald energy   TEWEN  =    -13872.96582283
  -Hartree energ DENC   =     -6076.65680405
  -exchange      EXHF   =         0.00000000
  -V(xc)+E(xc)   XCENC  =     -1392.37465981
  PAW double counting   =     22637.46387356   -20494.95717026
  entropy T*S    EENTRO =         0.00000000
  eigenvalues    EBANDS =      -758.16357829
  atomic energy  EATOM  =     19611.72375700
  Solvation  Ediel_sol  =         0.00000000
  free energy    TOTEN  =      -119.96440913 eV

  energy without entropy =     -119.96440913  energy(sigma->0) =     -119.96440913

 average (electrostatic) potential at core
  the test charge radii are     1.1249  1.4024  1.1875
  (the norm of the test charge is              1.0000)
       1 -75.0007       2 -75.0602       3 -75.1895       4 -75.0665       5 -75.1892
       6 -75.0009       7 -75.0599       8 -75.0663       9 -65.5333      10 -65.5030
      11 -65.5054      12 -65.5332      13 -65.4759      14 -65.5304      15 -65.5296
      16 -65.4764      17 -93.0811      18 -93.0966      19 -92.9979      20 -93.1930
      21 -93.1931      22 -93.0957      23 -92.9971      24 -93.0819      25 -93.3197
      26 -93.3361      27 -93.2325      28 -93.3202      29 -93.3136      30 -93.2295
      31 -93.3334      32 -93.3230      33 -93.3339      34 -93.3195      35 -93.3170
      36 -93.2309      37 -93.2312      38 -93.3225      39 -93.3166      40 -93.3347
      41 -93.0059      42 -93.0748      43 -93.1762      44 -93.0805      45 -93.0066
      46 -93.1749      47 -93.0756      48 -93.0784

 E-fermi :   2.0554     XC(G=0):  -7.8011     alpha+bet : -7.7665

 k-point     1 :       0.0000    0.0000    0.0000
  band No.  band energies     occupation
      1     -10.8437      2.00000
      2     -10.7144      2.00000
      3     -10.6691      2.00000
      4     -10.5341      2.00000
      5     -10.4807      2.00000
      6     -10.2561      2.00000
      7     -10.2218      2.00000
      8     -10.0424      2.00000
      9      -9.8893      2.00000
     10      -9.8803      2.00000
     11      -9.8673      2.00000
     12      -9.8495      2.00000
     13      -9.8439      2.00000
     14      -9.8071      2.00000
     15      -9.8056      2.00000
     16      -9.7408      2.00000
     17      -9.7302      2.00000
     18      -9.7137      2.00000
     19      -9.7049      2.00000
     20      -9.7031      2.00000
     21      -9.6825      2.00000
     22      -9.6595      2.00000
     23      -9.6529      2.00000
     24      -9.6240      2.00000
     25      -9.6126      2.00000
     26      -9.6060      2.00000
     27      -9.5869      2.00000
     28      -9.5611      2.00000
     29      -9.5531      2.00000
     30      -9.5478      2.00000
     31      -9.5407      2.00000
     32      -9.5088      2.00000
     33      -8.2225      2.00000
     34      -8.1228      2.00000
     35      -8.1125      2.00000
     36      -7.8821      2.00000
     37      -7.8557      2.00000
     38      -7.6459      2.00000
     39      -7.6312      2.00000
     40      -7.6306      2.00000
     41      -1.8207      2.00000
     42      -1.7610      2.00000
     43      -1.7175      2.00000
     44      -1.7029      2.00000
     45      -1.6545      2.00000
     46      -1.5868      2.00000
     47      -1.5301      2.00000
     48      -1.4762      2.00000
     49      -1.4707      2.00000
     50      -1.4375      2.00000
     51      -1.4329      2.00000
     52      -1.3923      2.00000
     53      -1.3543      2.00000
     54      -1.3257      2.00000
     55      -1.3180      2.00000
     56      -1.2761      2.00000
     57      -1.2336      2.00000
     58      -1.2239      2.00000
     59      -1.1555      2.00000
     60      -1.1108      2.00000
[...]
    197       4.7959      0.00000
    198       4.8257      0.00000
    199       4.8331      0.00000
    200       4.9506      0.00000
    201       5.0710      0.00000
    202       5.2674      0.00000
    203       5.5745      0.00000
    204       5.7172      0.00000
    205       5.9112      0.00000
    206       5.9309      0.00000
    207       5.9486      0.00000
    208       5.9851      0.00000
    209       7.1557      0.00000
    210       7.2609      0.00000
    211       7.2712      0.00000

[...]

 k-point    36 :       0.5000    0.5000    0.5000
  band No.  band energies     occupation
      1     -10.7694      2.00000
      2     -10.7671      2.00000
      3     -10.6407      2.00000
      4     -10.6399      2.00000
      5     -10.3838      2.00000
      6     -10.3831      2.00000
      7     -10.1179      2.00000
      8     -10.1143      2.00000
      9      -9.9057      2.00000
     10      -9.9053      2.00000
     11      -9.8192      2.00000
     12      -9.8165      2.00000
     13      -9.7909      2.00000
     14      -9.7904      2.00000
     15      -9.7494      2.00000
     16      -9.7489      2.00000
     17      -9.7276      2.00000
     18      -9.7264      2.00000
     19      -9.7047      2.00000
     20      -9.7003      2.00000
     21      -9.6956      2.00000
     22      -9.6938      2.00000
     23      -9.6385      2.00000
     24      -9.6322      2.00000
     25      -9.6154      2.00000
     26      -9.6121      2.00000
     27      -9.5850      2.00000
     28      -9.5821      2.00000
     29      -9.5507      2.00000
     30      -9.5474      2.00000
     31      -9.5379      2.00000
     32      -9.5365      2.00000
     33      -8.1993      2.00000
     34      -8.1981      2.00000
     35      -8.0054      2.00000
     36      -8.0035      2.00000
     37      -7.7652      2.00000
     38      -7.7635      2.00000
     39      -7.5878      2.00000
     40      -7.5855      2.00000
     41      -1.7822      2.00000
     42      -1.7794      2.00000
     43      -1.6759      2.00000
     44      -1.6751      2.00000
     45      -1.6326      2.00000
     46      -1.6308      2.00000
     47      -1.5386      2.00000
     48      -1.5375      2.00000
     49      -1.4902      2.00000
     50      -1.4891      2.00000
     51      -1.4579      2.00000
     52      -1.4568      2.00000
     53      -1.3778      2.00000
     54      -1.3774      2.00000
     55      -1.2863      2.00000
     56      -1.2854      2.00000
     57      -1.2689      2.00000
     58      -1.2677      2.00000
     59      -1.1406      2.00000
     60      -1.1358      2.00000
[...]
    197       4.9505      0.00000
    198       4.9511      0.00000
    199       5.0288      0.00000
    200       5.0307      0.00000
    201       5.5352      0.00000
    202       5.5364      0.00000
    203       5.5661      0.00000
    204       5.5672      0.00000
    205       5.5956      0.00000
    206       5.6153      0.00000
    207       5.8008      0.00000
    208       5.8012      0.00000
    209       7.2443      0.00000
    210       7.2468      0.00000
    211       7.5028      0.00000

 soft charge-density along one line, spin component           1
         0         1         2         3         4         5         6         7         8         9
 total charge-density along one line

------------------------ aborting loop because EDIFF is reached ----------------------------------------

 total charge

# of ion       s       p       d       tot
    1        0.238   0.147   9.323   9.708
    2        0.241   0.151   9.320   9.712
    3        0.254   0.159   9.312   9.725
    4        0.241   0.151   9.320   9.712
    5        0.252   0.157   9.313   9.722
    6        0.238   0.147   9.323   9.708
    7        0.241   0.151   9.320   9.712
    8        0.241   0.151   9.320   9.712
    9        1.834   1.401   0.138   3.372
   10        1.835   1.397   0.139   3.371
   11        1.835   1.397   0.139   3.371
   12        1.834   1.401   0.138   3.372
   13        1.833   1.400   0.135   3.368
   14        1.834   1.400   0.138   3.372
   15        1.834   1.400   0.138   3.372
   16        1.833   1.400   0.135   3.368
   17        1.516   2.743   0.015   4.274
   18        1.514   2.743   0.015   4.272
   19        1.513   2.747   0.016   4.276
   20        1.517   2.745   0.013   4.275
   21        1.517   2.745   0.013   4.275
   22        1.514   2.743   0.015   4.272
   23        1.513   2.747   0.016   4.276
   24        1.516   2.743   0.015   4.274
   25        1.518   2.742   0.012   4.273
   26        1.518   2.742   0.012   4.272
   27        1.514   2.742   0.017   4.273
   28        1.518   2.742   0.011   4.271
   29        1.518   2.743   0.012   4.273
   30        1.514   2.742   0.017   4.273
   31        1.518   2.742   0.012   4.272
   32        1.518   2.742   0.011   4.271
   33        1.518   2.742   0.012   4.272
   34        1.518   2.742   0.011   4.271
   35        1.518   2.742   0.012   4.273
   36        1.514   2.742   0.017   4.273
   37        1.514   2.742   0.017   4.273
   38        1.518   2.742   0.011   4.271
   39        1.518   2.742   0.012   4.273
   40        1.518   2.742   0.012   4.272
   41        1.513   2.747   0.016   4.276
   42        1.515   2.744   0.015   4.274
   43        1.517   2.746   0.012   4.275
   44        1.514   2.743   0.015   4.272
   45        1.513   2.747   0.016   4.276
   46        1.517   2.746   0.012   4.275
   47        1.515   2.744   0.015   4.274
   48        1.514   2.743   0.015   4.272
tot         65.133 100.203  76.089 241.426

  FREE ENERGIE OF THE ION-ELECTRON SYSTEM (eV)
  free  energy   TOTEN  =      -119.96440913 eV

  energy  without entropy=     -119.96440913  energy(sigma->0) =     -119.96440913

 writing wavefunctions

 total charge

# of ion       s       p       d       tot
    1        0.238   0.147   9.323   9.708
    2        0.241   0.151   9.320   9.712
    3        0.254   0.159   9.312   9.725
    4        0.241   0.151   9.320   9.712
    5        0.252   0.157   9.313   9.722
    6        0.238   0.147   9.323   9.708
    7        0.241   0.151   9.320   9.712
    8        0.241   0.151   9.320   9.712
    9        1.834   1.401   0.138   3.372
   10        1.835   1.397   0.139   3.371
   11        1.835   1.397   0.139   3.371
   12        1.834   1.401   0.138   3.372
   13        1.833   1.400   0.135   3.368
   14        1.834   1.400   0.138   3.372
   15        1.834   1.400   0.138   3.372
   16        1.833   1.400   0.135   3.368
   17        1.516   2.743   0.015   4.274
   18        1.514   2.743   0.015   4.272
   19        1.513   2.747   0.016   4.276
   20        1.517   2.745   0.013   4.275
   21        1.517   2.745   0.013   4.275
   22        1.514   2.743   0.015   4.272
   23        1.513   2.747   0.016   4.276
   24        1.516   2.743   0.015   4.274
   25        1.518   2.742   0.012   4.273
   26        1.518   2.742   0.012   4.272
   27        1.514   2.742   0.017   4.273
   28        1.518   2.742   0.011   4.271
   29        1.518   2.743   0.012   4.273
   30        1.514   2.742   0.017   4.273
   31        1.518   2.742   0.012   4.272
   32        1.518   2.742   0.011   4.271
   33        1.518   2.742   0.012   4.272
   34        1.518   2.742   0.011   4.271
   35        1.518   2.742   0.012   4.273
   36        1.514   2.742   0.017   4.273
   37        1.514   2.742   0.017   4.273
   38        1.518   2.742   0.011   4.271
   39        1.518   2.742   0.012   4.273
   40        1.518   2.742   0.012   4.272
   41        1.513   2.747   0.016   4.276
   42        1.515   2.744   0.015   4.274
   43        1.517   2.746   0.012   4.275
   44        1.514   2.743   0.015   4.272
   45        1.513   2.747   0.016   4.276
   46        1.517   2.746   0.012   4.275
   47        1.515   2.744   0.015   4.274
   48        1.514   2.743   0.015   4.272
tot         65.133 100.203  76.089 241.426

 BZINTS: Fermi energy:    2.055363;  352.000000 electrons
         Band energy:-0.758164E+03;  BLOECHL correction:    0.000000