 vasp.6.1.0 28Jan20 (build Jan 13 2021 21:44:47) complex

 executed on             LinuxIFC date 2021.09.12  19:26:47

 INCAR:
 POTCAR:    PAW_PBE Ag 02Apr2005
 POTCAR:    PAW_PBE Bi 08Apr2002
 POTCAR:    PAW_PBE I 08Apr2002
|           W    W    AA    RRRRR   N    N  II  N    N   GGGG   !!!           |
|           W    W   A  A   R    R  NN   N  II  NN   N  G    G  !!!           |
|           W    W  A    A  R    R  N N  N  II  N N  N  G       !!!           |
|           W WW W  AAAAAA  RRRRR   N  N N  II  N  N N  G  GGG   !            |
|           WW  WW  A    A  R   R   N   NN  II  N   NN  G    G                |
|           W    W  A    A  R    R  N    N  II  N    N   GGGG   !!!           |
|     For optimal performance we recommend to set                             |
|       NCORE = 4 - approx SQRT(number of cores).                             |
|     This setting can greatly improve the performance of VASP for DFT.       |
|     The default, NCORE=1 might be grossly inefficient on modern             |
|     multi-core architectures or massively parallel machines. Do your        |
|     own testing!!!!                                                         |
|     Unfortunately you need to use the default for GW and RPA                |
|     calculations (for HF NCORE is supported but not extensively tested      |
|     yet).                                                                   |

 POTCAR:    PAW_PBE Ag 02Apr2005
   VRHFIN =Ag : s1 d10

   TITEL  = PAW_PBE Ag 02Apr2005
   POMASS =  107.868; ZVAL   =   11.000    mass and valenz
   ENMAX  =  249.844; ENMIN  =  187.383 eV

 POTCAR:    PAW_PBE Bi 08Apr2002
   VRHFIN =Bi:

[...]

 POTCAR:    PAW_PBE I 08Apr2002
   VRHFIN =I : s2p5

   TITEL  = PAW_PBE I 08Apr2002
   POMASS =  126.904; ZVAL   =    7.000    mass and valenz
   ENMAX  =  175.647; ENMIN  =  131.735 eV

  PAW_PBE Ag 02Apr2005                  :
  PAW_PBE Bi 08Apr2002                  :
  PAW_PBE I 08Apr2002                   :

 POSCAR: Generation Seed Number
  positions in direct lattice
  velocities in cartesian coordinates
 exchange correlation table for  LEXCH =        8
   RHO(1)=    0.500       N(1)  =     2000
   RHO(2)=  100.500       N(2)  =     4000

 ion  position               nearest neighbor table
   1  0.226  0.259  0.994-  19 2.94  25 2.98  42 3.08  17 3.13  41 3.17  29 3.58
   2  0.750  0.747  0.998-  48 3.02  23 3.03  47 3.06  21 3.10  27 3.27  31 3.27
   3  0.000  0.276  0.225-  41 2.95  45 2.95  35 2.96  25 2.96
   4  0.500  0.975  0.525-  22 2.96  18 2.96  32 2.97  38 2.97
   5  0.725  0.988  0.755-  48 2.94  38 2.98  21 3.06  22 3.13  46 3.20  34 3.58
   6  0.775  0.506  0.241-  23 2.94  35 2.98  47 3.07  24 3.14  45 3.16  39 3.58
   7  0.251  0.502  0.754-  44 3.02  19 3.03  42 3.06  20 3.09  40 3.26  36 3.28
   8  0.275  0.745  0.513-  44 2.94  32 2.98  20 3.06  18 3.12  43 3.21
   9  0.996  0.001  0.999-  21 3.03  25 3.06  34 3.13  33 3.14  27 3.20  17 3.20
  10  0.500  0.499  0.001-  23 3.11  19 3.11  31 3.12  40 3.12  39 3.14  29 3.14
  11  0.004  0.502  0.499-  20 3.03  35 3.06  28 3.13  26 3.14  36 3.20  24 3.20
  12  1.000  0.750  0.751-  36 3.11  27 3.11  44 3.11  48 3.11  34 3.14  28 3.14
  13  0.250  0.002  0.252-  41 3.07  18 3.08  33 3.14  37 3.14  43 3.18  17 3.18
  14  0.503  0.749  0.251-  47 3.04  32 3.06  39 3.13  37 3.14  43 3.19  31 3.20
  15  0.497  0.249  0.751-  42 3.04  38 3.06  29 3.13  30 3.14  46 3.19  40 3.20
  16  0.750  0.248  0.498-  45 3.07  22 3.07  26 3.14  30 3.14  46 3.18  24 3.18
  17  0.247  0.014  0.002-   1 3.13  13 3.18   9 3.20
  18  0.270  0.989  0.493-   4 2.96  13 3.08   8 3.12
  19  0.256  0.488  0.991-   1 2.94   7 3.03  10 3.11
  20  0.242  0.507  0.511-  11 3.03   8 3.06   7 3.09
  21  0.758  0.990  0.994-   9 3.03   5 3.06   2 3.10
  22  0.730  0.008  0.510-   4 2.96  16 3.07   5 3.13
  23  0.744  0.509  0.012-   6 2.94   2 3.03  10 3.11
  24  0.753  0.498  0.486-   6 3.14  16 3.18  11 3.20
  25  0.992  0.241  0.994-   3 2.96   1 2.98   9 3.06
  26  0.996  0.255  0.511-  16 3.14  11 3.14
  27  0.006  0.750  0.995-  12 3.11   9 3.20   2 3.27
  28  0.993  0.747  0.504-  11 3.13  12 3.14
  29  0.507  0.253  0.997-  15 3.13  10 3.14   1 3.58
  30  0.504  0.260  0.505-  16 3.14  15 3.14
  31  0.493  0.744  1.000-  10 3.12  14 3.20   2 3.27
  32  0.508  0.744  0.491-   4 2.97   8 2.98  14 3.06
  33  0.004  0.989  0.245-  13 3.14   9 3.14
  34  0.006  0.996  0.753-   9 3.13  12 3.14   5 3.58
  35  0.008  0.506  0.259-   3 2.96   6 2.98  11 3.06
  36  0.993  0.505  0.750-  12 3.11  11 3.20   7 3.28
  37  0.496  0.995  0.240-  13 3.14  14 3.14
  38  0.492  0.009  0.756-   4 2.97   5 2.98  15 3.06
  39  0.493  0.503  0.247-  14 3.13  10 3.14   6 3.58
  40  0.507  0.500  0.756-  10 3.12  15 3.20   7 3.26
  41  0.229  0.242  0.243-   3 2.95  13 3.07   1 3.17
  42  0.258  0.262  0.755-  15 3.04   7 3.06   1 3.08
  43  0.253  0.752  0.261-  13 3.18  14 3.19   8 3.21
  44  0.244  0.739  0.742-   8 2.94   7 3.02  12 3.11
  45  0.771  0.258  0.258-   3 2.95  16 3.07   6 3.16
  46  0.747  0.238  0.748-  16 3.18  15 3.19   5 3.20
  47  0.742  0.745  0.238-  14 3.04   2 3.06   6 3.07
  48  0.756  0.759  0.762-   5 2.94   2 3.02  12 3.11

  Warning from LATTYP: Got some problem with cell dimensions!
  Tried to take original basis but could not verify dimensions!
  LATTYP: Found a triclinic cell.
 ALAT       =    12.7267553606
 B/A-ratio  =     1.4140209275
 C/A-ratio  =     1.0000817927
 COS(alpha) =     0.0000109888
 COS(beta)  =     0.0001664547
 COS(gamma) =     0.7070757504

  Lattice vectors:

 A1 = ( -12.7267552709,  -0.0011955402,  -0.0009234471)
 A2 = ( -12.7256587924,  12.7243847872,   0.0000803339)
 A3 = (  -0.0011949933,  -0.0009169518, -12.7277962277)

Analysis of symmetry for initial positions (statically):
 Subroutine PRICEL returns:
 Original cell was already a primitive cell.

 Routine SETGRP: Setting up the symmetry group for a
 triclinic supercell.

 Subroutine GETGRP returns: Found  1 space group operations
 (whereof  1 operations were pure point group operations)
 out of a pool of  2 trial point group operations.

The static configuration has the point symmetry C_1 .

Analysis of symmetry for dynamics (positions and initial velocities):
 Subroutine PRICEL returns:
 Original cell was already a primitive cell.

 Routine SETGRP: Setting up the symmetry group for a
 triclinic supercell.

 Subroutine GETGRP returns: Found  1 space group operations
 (whereof  1 operations were pure point group operations)
 out of a pool of  2 trial point group operations.

The dynamic configuration has the point symmetry C_1 .

 Subroutine INISYM returns: Found  1 space group operations
 (whereof  1 operations are pure point group operations),
 and found     1 'primitive' translations

                                     Primitive cell

  volume of cell :    2061.3346

  direct lattice vectors                    reciprocal lattice vectors
    12.726755271  0.001195540  0.000923447     0.078574624 -0.000006770 -0.000007377
     0.001096479 12.725580327  0.001003781    -0.000007382  0.078581879 -0.000005661
     0.001194993  0.000916952 12.727796228    -0.000005700 -0.000006197  0.078568198

  length of vectors
    12.726755361 12.725580414 12.727796317     0.078574625  0.078581880  0.078568198

  position of ions in fractional coordinates (direct lattice)
     0.225512888  0.259022484  0.994266593
     0.749937523  0.746790888  0.998471867
     0.000227128  0.275839035  0.224533770
     0.500130668  0.975427244  0.524570956
     0.725122946  0.988160538  0.755180532
     0.774712739  0.505663296  0.240619420
     0.250564731  0.501851377  0.753519002
     0.275057719  0.745104216  0.512835682
     0.995869333  0.001294942  0.998632360
     0.499943118  0.499481643  0.000626033
     0.003876672  0.501843299  0.499077725
     0.999896218  0.749572027  0.750822211
     0.249519249  0.001722611  0.252211396
     0.503142811  0.748697363  0.250836315
     0.496673977  0.249260186  0.751280638
     0.750466690  0.248018223  0.498241799
     0.247233960  0.013899206  0.002371110
     0.270063967  0.989188937  0.492669042
     0.255675751  0.488246127  0.991205240
     0.241702918  0.507007568  0.510655108
     0.758165641  0.990030076  0.993678024
     0.729997572  0.007563145  0.510433319
     0.744162024  0.508872738  0.011564495
     0.752669800  0.497916076  0.486366348
     0.991712850  0.241419025  0.994330215
     0.996394881  0.255218842  0.511121886
     0.006454644  0.749949064  0.995249181
     0.993269661  0.747186709  0.504173324
     0.506538117  0.253148738  0.996800291
     0.503992537  0.259697815  0.504760894
     0.493124060  0.744296483  0.999719784
     0.508005452  0.744437640  0.491093678
     0.003557032  0.989054324  0.245176008
     0.006493116  0.996258951  0.753277641
     0.008364867  0.506094948  0.258939741
     0.993136411  0.505144413  0.750289706
     0.495948791  0.995261283  0.240474326
     0.491956313  0.009029934  0.755501495
     0.493303890  0.503172002  0.246891282
     0.506741768  0.500462296  0.755815348
     0.228741112  0.241943949  0.242647793
     0.258307568  0.261619105  0.754877377
     0.252972871  0.751999536  0.261321522
     0.244093334  0.738721596  0.741955850
     0.771439459  0.257855983  0.258107720
     0.746991918  0.238481446  0.748002948
     0.741609080  0.744972788  0.238360590
     0.755671930  0.758949776  0.761709115

  ion indices of the primitive-cell ions
   primitive index   ion index
                 1           1
                 2           2
                 3           3
                 4           4
                 5           5
                 6           6
                 7           7
                 8           8
                 9           9
                10          10
                11          11
                12          12
                13          13
                14          14
                15          15
                16          16
                17          17
                18          18
                19          19
                20          20
                21          21
                22          22
                23          23
                24          24
                25          25
                26          26
                27          27
                28          28
                29          29
                30          30
                31          31
                32          32
                33          33
                34          34
                35          35
                36          36
                37          37
                38          38
                39          39
                40          40
                41          41
                42          42
                43          43
                44          44
                45          45
                46          46
                47          47
                48          48

 KPOINTS: agbii

Automatic generation of k-mesh.
Space group operators:
 irot       det(A)        alpha          n_x          n_y          n_z        tau_x        tau_y        tau_z
[...]
   3.28860614  3.33025594  9.60842658
   3.22066064  9.57017256  3.32703553
   3.10821275  9.40163318  9.44442980
   9.81851237  3.28252598  3.28611368
   9.50793868  3.03639374  9.52135830
   9.43937895  9.48131625  3.03523765
   9.61899413  9.65967822  9.69633805

 k-point   1 :   0.0000 0.0000 0.0000  plane waves:   18613
 k-point   2 :   0.2500 0.0000 0.0000  plane waves:   18533
 k-point   3 :   0.5000 0.0000 0.0000  plane waves:   18486
 k-point   4 :  -0.0000 0.2500-0.0000  plane waves:   18533
 k-point   5 :   0.2500 0.2500-0.0000  plane waves:   18509
 k-point   6 :   0.5000 0.2500 0.0000  plane waves:   18506
 k-point   7 :  -0.2500 0.2500-0.0000  plane waves:   18509
 k-point   8 :  -0.0000 0.5000-0.0000  plane waves:   18488
 k-point   9 :   0.2500 0.5000-0.0000  plane waves:   18506
 k-point  10 :   0.5000 0.5000-0.0000  plane waves:   18528
 k-point  11 :   0.0000 0.0000 0.2500  plane waves:   18533
 k-point  12 :   0.2500 0.0000 0.2500  plane waves:   18509
 k-point  13 :   0.5000 0.0000 0.2500  plane waves:   18506
 k-point  14 :  -0.2500 0.0000 0.2500  plane waves:   18509
 k-point  15 :   0.0000 0.2500 0.2500  plane waves:   18509
 k-point  16 :   0.2500 0.2500 0.2500  plane waves:   18506
 k-point  17 :   0.5000 0.2500 0.2500  plane waves:   18478
 k-point  18 :  -0.2500 0.2500 0.2500  plane waves:   18519
 k-point  19 :  -0.0000 0.5000 0.2500  plane waves:   18506
 k-point  20 :   0.2500 0.5000 0.2500  plane waves:   18478
 k-point  21 :   0.5000 0.5000 0.2500  plane waves:   18500
 k-point  22 :  -0.2500 0.5000 0.2500  plane waves:   18478
 k-point  23 :   0.0000-0.2500 0.2500  plane waves:   18509
 k-point  24 :   0.2500-0.2500 0.2500  plane waves:   18520
 k-point  25 :   0.5000-0.2500 0.2500  plane waves:   18478
 k-point  26 :  -0.2500-0.2500 0.2500  plane waves:   18517
 k-point  27 :   0.0000 0.0000 0.5000  plane waves:   18484
 k-point  28 :   0.2500-0.0000 0.5000  plane waves:   18506
 k-point  29 :   0.5000 0.0000 0.5000  plane waves:   18528
 k-point  30 :   0.0000 0.2500 0.5000  plane waves:   18506
 k-point  31 :   0.2500 0.2500 0.5000  plane waves:   18478
 k-point  32 :   0.5000 0.2500 0.5000  plane waves:   18500
 k-point  33 :  -0.2500 0.2500 0.5000  plane waves:   18478
 k-point  34 :   0.0000 0.5000 0.5000  plane waves:   18528
 k-point  35 :   0.2500 0.5000 0.5000  plane waves:   18500
 k-point  36 :   0.5000 0.5000 0.5000  plane waves:   18504

 maximum and minimum number of plane-waves per node :     18613    18478

 maximum number of plane-waves:     18613
 maximum index in each direction:
   IXMAX=   16   IYMAX=   16   IZMAX=   16
   IXMIN=  -16   IYMIN=  -16   IZMIN=  -16

 serial   3D FFT for wavefunctions
 parallel 3D FFT for charge:
    minimum data exchange during FFTs selected (reduces bandwidth)

 Broyden mixing: mesh for mixing (old mesh)
   NGX = 33   NGY = 33   NGZ = 33
  (NGX  =100   NGY  =100   NGZ  =100)
  gives a total of  35937 points

 initial charge density was supplied:
 number of electron     352.0000524 magnetization
 keeping initial charge density in first step

 Maximum index for augmentation-charges         5605 (set IRDMAX)

 First call to EWALD:  gamma=   0.139
 Maximum number of real-space cells 3x 3x 3
 Maximum number of reciprocal cells 3x 3x 3

--------------------------------------- Iteration      1(   1)  ---------------------------------------

 BZINTS: Fermi energy:    2.052224;  352.000000 electrons
         Band energy:-0.758700E+03;  BLOECHL correction:    0.000000

 eigenvalue-minimisations  :  9952
 total energy-change (2. order) :-0.1199644E+03  (-0.2336794E-06)
 number of electron     352.0000524 magnetization
 augmentation part      -23.1213232 magnetization

 Broyden mixing:
  rms(total) = 0.66436E-03    rms(broyden)= 0.66433E-03
  rms(prec ) = 0.76574E-03
  weight for this iteration     100.00

 Free energy of the ion-electron system (eV)
  alpha Z        PSCENC =       225.92079151
  Ewald energy   TEWEN  =    -13871.14387411
  -Hartree energ DENC   =     -6077.89484066
  -exchange      EXHF   =         0.00000000
  -V(xc)+E(xc)   XCENC  =     -1392.37976791
  PAW double counting   =     22637.18528434   -20494.67591693
  entropy T*S    EENTRO =         0.00000000
  eigenvalues    EBANDS =      -758.69982252
  atomic energy  EATOM  =     19611.72375700
  Solvation  Ediel_sol  =         0.00000000
  free energy    TOTEN  =      -119.96438928 eV

  energy without entropy =     -119.96438928  energy(sigma->0) =     -119.96438928

--------------------------------------- Iteration      1(   2)  ---------------------------------------

[...]

 eigenvalue-minimisations  :  8202
 total energy-change (2. order) :-0.3245077E-07  (-0.1047557E-06)
 number of electron     352.0000524 magnetization
 augmentation part      -23.1213232 magnetization

 Free energy of the ion-electron system (eV)
  alpha Z        PSCENC =       225.92079151
  Ewald energy   TEWEN  =    -13871.14387411
  -Hartree energ DENC   =     -6077.89574988
  -exchange      EXHF   =         0.00000000
  -V(xc)+E(xc)   XCENC  =     -1392.37929005
  PAW double counting   =     22636.76282075   -20494.25419832
  entropy T*S    EENTRO =         0.00000000
  eigenvalues    EBANDS =      -758.69864622
  atomic energy  EATOM  =     19611.72375700
  Solvation  Ediel_sol  =         0.00000000
  free energy    TOTEN  =      -119.96438932 eV

  energy without entropy =     -119.96438932  energy(sigma->0) =     -119.96438932

 average (electrostatic) potential at core
  the test charge radii are     1.1249  1.4024  1.1875
  (the norm of the test charge is              1.0000)
       1 -75.0603       2 -75.0021       3 -75.1909       4 -75.1897       5 -75.0687
       6 -75.0609       7 -75.0025       8 -75.0705       9 -65.5351      10 -65.5053
      11 -65.5349      12 -65.5073      13 -65.4770      14 -65.5310      15 -65.5320
      16 -65.4776      17 -93.1977      18 -93.1005      19 -92.9964      20 -93.0854
      21 -93.0829      22 -93.0977      23 -92.9964      24 -93.1951      25 -93.2321
      26 -93.3214      27 -93.3224      28 -93.3362      29 -93.3368      30 -93.3247
      31 -93.3164      32 -93.2318      33 -93.3211      34 -93.3360      35 -93.2315
      36 -93.3193      37 -93.3250      38 -93.2319      39 -93.3368      40 -93.3187
      41 -93.0757      42 -93.0769      43 -93.1718      44 -93.0109      45 -93.0795
      46 -93.1765      47 -93.0762      48 -93.0108

 E-fermi :   2.0521     XC(G=0):  -7.8001     alpha+bet : -7.7650

 k-point     1 :       0.0000    0.0000    0.0000
  band No.  band energies     occupation
      1     -10.8455      2.00000
      2     -10.7163      2.00000
      3     -10.6709      2.00000
      4     -10.5357      2.00000
      5     -10.4826      2.00000
      6     -10.2573      2.00000
      7     -10.2236      2.00000
      8     -10.0437      2.00000
      9      -9.8911      2.00000
     10      -9.8823      2.00000
     11      -9.8694      2.00000
     12      -9.8513      2.00000
     13      -9.8454      2.00000
     14      -9.8085      2.00000
     15      -9.8070      2.00000
     16      -9.7424      2.00000
     17      -9.7314      2.00000
     18      -9.7162      2.00000
     19      -9.7061      2.00000
     20      -9.7029      2.00000
     21      -9.6844      2.00000
     22      -9.6611      2.00000
     23      -9.6540      2.00000
     24      -9.6263      2.00000
     25      -9.6131      2.00000
     26      -9.6072      2.00000
     27      -9.5885      2.00000
     28      -9.5637      2.00000
     29      -9.5539      2.00000
     30      -9.5499      2.00000
     31      -9.5413      2.00000
     32      -9.5100      2.00000
     33      -8.2245      2.00000
     34      -8.1245      2.00000
     35      -8.1144      2.00000
     36      -7.8838      2.00000
     37      -7.8575      2.00000
     38      -7.6472      2.00000
     39      -7.6331      2.00000
     40      -7.6315      2.00000
     41      -1.8224      2.00000
     42      -1.7627      2.00000
     43      -1.7189      2.00000
     44      -1.7042      2.00000
     45      -1.6563      2.00000
     46      -1.5886      2.00000
     47      -1.5323      2.00000
     48      -1.4780      2.00000
     49      -1.4711      2.00000
     50      -1.4394      2.00000
     51      -1.4339      2.00000
     52      -1.3940      2.00000
     53      -1.3565      2.00000
     54      -1.3278      2.00000
     55      -1.3212      2.00000
     56      -1.2763      2.00000
     57      -1.2346      2.00000
     58      -1.2246      2.00000
     59      -1.1571      2.00000
     60      -1.1145      2.00000
[...]
    197       4.7949      0.00000
    198       4.8234      0.00000
    199       4.8314      0.00000
    200       4.9489      0.00000
    201       5.0687      0.00000
    202       5.2649      0.00000
    203       5.5751      0.00000
    204       5.7201      0.00000
    205       5.9077      0.00000
    206       5.9276      0.00000
    207       5.9454      0.00000
    208       5.9812      0.00000
    209       7.1542      0.00000
    210       7.2597      0.00000
    211       7.2693      0.00000

[...]

 k-point    36 :       0.5000    0.5000    0.5000
  band No.  band energies     occupation
      1     -10.7714      2.00000
      2     -10.7688      2.00000
      3     -10.6422      2.00000
      4     -10.6417      2.00000
      5     -10.3853      2.00000
      6     -10.3847      2.00000
      7     -10.1198      2.00000
      8     -10.1153      2.00000
      9      -9.9077      2.00000
     10      -9.9070      2.00000
     11      -9.8206      2.00000
     12      -9.8185      2.00000
     13      -9.7929      2.00000
     14      -9.7920      2.00000
     15      -9.7511      2.00000
     16      -9.7506      2.00000
     17      -9.7290      2.00000
     18      -9.7283      2.00000
     19      -9.7062      2.00000
     20      -9.7017      2.00000
     21      -9.6967      2.00000
     22      -9.6942      2.00000
     23      -9.6406      2.00000
     24      -9.6324      2.00000
     25      -9.6169      2.00000
     26      -9.6135      2.00000
     27      -9.5872      2.00000
     28      -9.5824      2.00000
     29      -9.5543      2.00000
     30      -9.5487      2.00000
     31      -9.5383      2.00000
     32      -9.5369      2.00000
     33      -8.2014      2.00000
     34      -8.1999      2.00000
     35      -8.0077      2.00000
     36      -8.0046      2.00000
     37      -7.7671      2.00000
     38      -7.7646      2.00000
     39      -7.5893      2.00000
     40      -7.5870      2.00000
     41      -1.7841      2.00000
     42      -1.7806      2.00000
     43      -1.6773      2.00000
     44      -1.6767      2.00000
     45      -1.6339      2.00000
     46      -1.6329      2.00000
     47      -1.5410      2.00000
     48      -1.5387      2.00000
     49      -1.4916      2.00000
     50      -1.4914      2.00000
     51      -1.4587      2.00000
     52      -1.4579      2.00000
     53      -1.3792      2.00000
     54      -1.3789      2.00000
     55      -1.2889      2.00000
     56      -1.2872      2.00000
     57      -1.2707      2.00000
     58      -1.2692      2.00000
     59      -1.1433      2.00000
     60      -1.1352      2.00000
[...]
    197       4.9480      0.00000
    198       4.9498      0.00000
    199       5.0267      0.00000
    200       5.0294      0.00000
    201       5.5326      0.00000
    202       5.5332      0.00000
    203       5.5627      0.00000
    204       5.5644      0.00000
    205       5.5919      0.00000
    206       5.6222      0.00000
    207       5.7974      0.00000
    208       5.7978      0.00000
    209       7.2424      0.00000
    210       7.2460      0.00000
    211       7.5064      0.00000

 soft charge-density along one line, spin component           1
         0         1         2         3         4         5         6         7         8         9
 total charge-density along one line

------------------------ aborting loop because EDIFF is reached ----------------------------------------

 total charge

# of ion       s       p       d       tot
    1        0.241   0.151   9.320   9.712
    2        0.238   0.147   9.323   9.708
    3        0.255   0.160   9.311   9.726
    4        0.252   0.157   9.313   9.722
    5        0.241   0.151   9.320   9.712
    6        0.241   0.151   9.320   9.712
    7        0.238   0.147   9.323   9.708
    8        0.241   0.151   9.320   9.712
    9        1.833   1.401   0.138   3.373
   10        1.835   1.397   0.139   3.370
   11        1.834   1.401   0.138   3.372
   12        1.835   1.397   0.139   3.371
   13        1.833   1.400   0.135   3.368
   14        1.834   1.400   0.138   3.372
   15        1.834   1.400   0.138   3.372
   16        1.833   1.400   0.135   3.368
   17        1.517   2.745   0.013   4.275
   18        1.514   2.743   0.015   4.272
   19        1.513   2.747   0.016   4.276
   20        1.516   2.743   0.015   4.274
   21        1.516   2.743   0.015   4.274
   22        1.514   2.743   0.015   4.272
   23        1.513   2.747   0.016   4.276
   24        1.517   2.745   0.013   4.275
   25        1.514   2.742   0.017   4.273
   26        1.518   2.742   0.011   4.271
   27        1.518   2.742   0.012   4.273
   28        1.518   2.742   0.012   4.272
   29        1.518   2.742   0.012   4.272
   30        1.518   2.742   0.011   4.271
   31        1.518   2.742   0.012   4.273
   32        1.514   2.742   0.017   4.273
   33        1.518   2.742   0.011   4.271
   34        1.518   2.742   0.012   4.272
   35        1.514   2.742   0.017   4.273
   36        1.518   2.742   0.012   4.273
   37        1.518   2.742   0.011   4.271
   38        1.514   2.742   0.017   4.273
   39        1.518   2.742   0.012   4.272
   40        1.518   2.742   0.012   4.273
   41        1.514   2.744   0.015   4.272
   42        1.515   2.744   0.015   4.274
   43        1.518   2.746   0.012   4.275
   44        1.513   2.747   0.016   4.276
   45        1.514   2.743   0.015   4.272
   46        1.517   2.746   0.012   4.275
   47        1.515   2.744   0.015   4.274
   48        1.513   2.747   0.016   4.276
tot         65.133 100.203  76.089 241.425

  FREE ENERGIE OF THE ION-ELECTRON SYSTEM (eV)
  free  energy   TOTEN  =      -119.96438932 eV

  energy  without entropy=     -119.96438932  energy(sigma->0) =     -119.96438932

 writing wavefunctions

 total charge

# of ion       s       p       d       tot
    1        0.241   0.151   9.320   9.712
    2        0.238   0.147   9.323   9.708
    3        0.255   0.160   9.311   9.726
    4        0.252   0.157   9.313   9.722
    5        0.241   0.151   9.320   9.712
    6        0.241   0.151   9.320   9.712
    7        0.238   0.147   9.323   9.708
    8        0.241   0.151   9.320   9.712
    9        1.833   1.401   0.138   3.373
   10        1.835   1.397   0.139   3.370
   11        1.834   1.401   0.138   3.372
   12        1.835   1.397   0.139   3.371
   13        1.833   1.400   0.135   3.368
   14        1.834   1.400   0.138   3.372
   15        1.834   1.400   0.138   3.372
   16        1.833   1.400   0.135   3.368
   17        1.517   2.745   0.013   4.275
   18        1.514   2.743   0.015   4.272
   19        1.513   2.747   0.016   4.276
   20        1.516   2.743   0.015   4.274
   21        1.516   2.743   0.015   4.274
   22        1.514   2.743   0.015   4.272
   23        1.513   2.747   0.016   4.276
   24        1.517   2.745   0.013   4.275
   25        1.514   2.742   0.017   4.273
   26        1.518   2.742   0.011   4.271
   27        1.518   2.742   0.012   4.273
   28        1.518   2.742   0.012   4.272
   29        1.518   2.742   0.012   4.272
   30        1.518   2.742   0.011   4.271
   31        1.518   2.742   0.012   4.273
   32        1.514   2.742   0.017   4.273
   33        1.518   2.742   0.011   4.271
   34        1.518   2.742   0.012   4.272
   35        1.514   2.742   0.017   4.273
   36        1.518   2.742   0.012   4.273
   37        1.518   2.742   0.011   4.271
   38        1.514   2.742   0.017   4.273
   39        1.518   2.742   0.012   4.272
   40        1.518   2.742   0.012   4.273
   41        1.514   2.744   0.015   4.272
   42        1.515   2.744   0.015   4.274
   43        1.518   2.746   0.012   4.275
   44        1.513   2.747   0.016   4.276
   45        1.514   2.743   0.015   4.272
   46        1.517   2.746   0.012   4.275
   47        1.515   2.744   0.015   4.274
   48        1.513   2.747   0.016   4.276
tot         65.133 100.203  76.089 241.425

 BZINTS: Fermi energy:    2.052079;  352.000000 electrons
         Band energy:-0.758699E+03;  BLOECHL correction:   -0.000000