 vasp.6.1.0 28Jan20 (build Jan 13 2021 21:44:47) complex

 executed on             LinuxIFC date 2021.09.12  19:23:34

 INCAR:
 POTCAR:    PAW_PBE Ag 02Apr2005
 POTCAR:    PAW_PBE Bi 08Apr2002
 POTCAR:    PAW_PBE I 08Apr2002
|           W    W    AA    RRRRR   N    N  II  N    N   GGGG   !!!           |
|           W    W   A  A   R    R  NN   N  II  NN   N  G    G  !!!           |
|           W    W  A    A  R    R  N N  N  II  N N  N  G       !!!           |
|           W WW W  AAAAAA  RRRRR   N  N N  II  N  N N  G  GGG   !            |
|           WW  WW  A    A  R   R   N   NN  II  N   NN  G    G                |
|           W    W  A    A  R    R  N    N  II  N    N   GGGG   !!!           |
|     For optimal performance we recommend to set                             |
|       NCORE = 4 - approx SQRT(number of cores).                             |
|     This setting can greatly improve the performance of VASP for DFT.       |
|     The default, NCORE=1 might be grossly inefficient on modern             |
|     multi-core architectures or massively parallel machines. Do your        |
|     own testing!!!!                                                         |
|     Unfortunately you need to use the default for GW and RPA                |
|     calculations (for HF NCORE is supported but not extensively tested      |
|     yet).                                                                   |

 POTCAR:    PAW_PBE Ag 02Apr2005
   VRHFIN =Ag : s1 d10

   TITEL  = PAW_PBE Ag 02Apr2005
   POMASS =  107.868; ZVAL   =   11.000    mass and valenz
   ENMAX  =  249.844; ENMIN  =  187.383 eV

 POTCAR:    PAW_PBE Bi 08Apr2002
   VRHFIN =Bi:

[...]

 POTCAR:    PAW_PBE I 08Apr2002
   VRHFIN =I : s2p5

   TITEL  = PAW_PBE I 08Apr2002
   POMASS =  126.904; ZVAL   =    7.000    mass and valenz
   ENMAX  =  175.647; ENMIN  =  131.735 eV

  PAW_PBE Ag 02Apr2005                  :
  PAW_PBE Bi 08Apr2002                  :
  PAW_PBE I 08Apr2002                   :

 POSCAR: Generation Seed Number
  positions in direct lattice
  velocities in cartesian coordinates
 exchange correlation table for  LEXCH =        8
   RHO(1)=    0.500       N(1)  =     2000
   RHO(2)=  100.500       N(2)  =     4000

 ion  position               nearest neighbor table
   1  0.525  0.475  0.000-  40 2.96  39 2.96  29 2.96  23 2.97
   2  0.998  0.247  0.253-  45 3.02  33 3.03  41 3.06  35 3.09  26 3.24  25 3.31
   3  0.995  0.760  0.726-  34 2.94  28 2.98  48 3.08  36 3.15  44 3.15  27 3.58
   4  0.240  0.005  0.275-  33 2.94  18 2.99  41 3.08  37 3.14  43 3.16  17 3.58
   5  0.753  0.002  0.749-  46 3.02  34 3.03  48 3.06  38 3.09  22 3.25  21 3.29
   6  0.755  0.488  0.225-  45 2.94  23 2.98  35 3.06  39 3.12  47 3.21
   7  0.510  0.245  0.775-  46 2.94  29 2.98  38 3.06  40 3.14  42 3.18
   8  0.224  0.776  0.500-  43 2.95  44 2.96  18 2.96  28 2.96
   9  0.000  0.000  0.000-  25 3.11  21 3.11  34 3.11  33 3.11  17 3.14  27 3.14
  10  0.250  0.249  0.004-  41 3.04  29 3.06  17 3.12  19 3.14  42 3.19  25 3.20
  11  0.751  0.750  0.997-  48 3.04  23 3.06  27 3.12  31 3.14  47 3.19  21 3.20
  12  0.998  0.502  0.496-  35 3.03  28 3.06  24 3.13  20 3.14  36 3.20  26 3.20
  13  0.498  0.002  0.504-  38 3.03  18 3.06  30 3.13  32 3.14  37 3.20  22 3.20
  14  0.498  0.748  0.250-  43 3.07  39 3.07  32 3.14  31 3.14  47 3.18  37 3.19
  15  0.252  0.502  0.750-  44 3.07  40 3.07  20 3.14  19 3.14  42 3.18  36 3.19
  16  0.750  0.250  0.500-  46 3.11  22 3.11  45 3.11  26 3.12  30 3.14  24 3.14
  17  0.247  0.004  0.994-  10 3.12   9 3.14   4 3.58
  18  0.258  0.006  0.509-   8 2.96   4 2.99  13 3.06
  19  0.240  0.496  0.996-  15 3.14  10 3.14
  20  0.245  0.490  0.504-  15 3.14  12 3.14
  21  0.756  0.001  0.007-   9 3.11  11 3.20   5 3.29
  22  0.750  0.005  0.493-  16 3.11  13 3.20   5 3.25
  23  0.755  0.509  0.992-   1 2.97   6 2.98  11 3.06
  24  0.753  0.496  0.507-  12 3.13  16 3.14
  25  1.000  0.244  0.993-   9 3.11  10 3.20   2 3.31
  26  0.994  0.250  0.507-  16 3.12  12 3.20   2 3.24
  27  0.997  0.753  0.007-  11 3.12   9 3.14   3 3.58
  28  0.994  0.742  0.492-   8 2.96   3 2.98  12 3.06
  29  0.491  0.245  0.009-   1 2.96   7 2.98  10 3.06
  30  0.503  0.247  0.493-  13 3.13  16 3.14
  31  0.505  0.760  0.004-  14 3.14  11 3.14
  32  0.510  0.755  0.497-  14 3.14  13 3.14
  33  0.011  0.009  0.244-   4 2.94   2 3.03   9 3.11
  34  0.990  0.989  0.756-   3 2.94   5 3.03   9 3.11
  35  0.993  0.490  0.258-  12 3.03   6 3.06   2 3.09
  36  0.002  0.514  0.747-   3 3.15  15 3.19  12 3.20
  37  0.486  0.998  0.253-   4 3.14  14 3.19  13 3.20
  38  0.510  0.006  0.742-  13 3.03   7 3.06   5 3.09
  39  0.511  0.508  0.230-   1 2.96  14 3.07   6 3.12
  40  0.492  0.490  0.771-   1 2.96  15 3.07   7 3.14
  41  0.238  0.245  0.242-  10 3.04   2 3.06   4 3.08
  42  0.262  0.252  0.753-   7 3.18  15 3.18  10 3.19
  43  0.258  0.758  0.271-   8 2.95  14 3.07   4 3.16
  44  0.241  0.742  0.729-   8 2.96  15 3.07   3 3.15
  45  0.761  0.259  0.256-   6 2.94   2 3.02  16 3.11
  46  0.740  0.239  0.744-   7 2.94   5 3.02  16 3.11
  47  0.748  0.739  0.247-  14 3.18  11 3.19   6 3.21
  48  0.755  0.762  0.758-  11 3.04   5 3.06   3 3.08

  LATTYP: Found a base centered monoclinic cell.
 ALAT       =    54.0016859360
 B/A-ratio  =     0.3332439609
 C/A-ratio  =     0.2356875467
 COS(beta)  =    -0.9428212566

  Lattice vectors:

 A1 = (  12.7277406168,  25.4560778325,   0.0031452930)
 A2 = (   0.0024847743,  25.4560911278,  12.7277029576)
 A3 = (  -0.0007922309, -12.7275248152,  -0.0009760273)

Analysis of symmetry for initial positions (statically):
 Subroutine PRICEL returns:
 Original cell was already a primitive cell.

 Routine SETGRP: Setting up the symmetry group for a
 base centered monoclinic supercell.

 Subroutine GETGRP returns: Found  1 space group operations
 (whereof  1 operations were pure point group operations)
 out of a pool of  4 trial point group operations.

The static configuration has the point symmetry C_1 .

Analysis of symmetry for dynamics (positions and initial velocities):
 Subroutine PRICEL returns:
 Original cell was already a primitive cell.

 Routine SETGRP: Setting up the symmetry group for a
 base centered monoclinic supercell.

 Subroutine GETGRP returns: Found  1 space group operations
 (whereof  1 operations were pure point group operations)
 out of a pool of  4 trial point group operations.

The dynamic configuration has the point symmetry C_1 .

 Subroutine INISYM returns: Found  1 space group operations
 (whereof  1 operations are pure point group operations),
 and found     1 'primitive' translations

                                     Primitive cell

  volume of cell :    2061.2212

  direct lattice vectors                    reciprocal lattice vectors
    12.726156155  0.001028202  0.001193238     0.078578323 -0.000004891 -0.000005559
     0.000792231 12.727524815  0.000976027    -0.000006347  0.078569873 -0.000006430
     0.000900312  0.001041497 12.725750903    -0.000007367 -0.000006026  0.078580826

  length of vectors
    12.726156252 12.727524877 12.725750977     0.078578324  0.078569874  0.078580826

  position of ions in fractional coordinates (direct lattice)
     0.524882855  0.475209070  0.000228970
     0.997893979  0.246782499  0.252939959
     0.994545801  0.760148529  0.725556096
     0.240190781  0.005269058  0.274688819
     0.752868505  0.002109616  0.748679452
     0.755280441  0.488121787  0.225134064
     0.510465040  0.244702543  0.775153556
     0.223870492  0.775979941  0.500154407
     0.000005342  0.000098189  0.000138842
     0.250443831  0.248837824  0.003943959
     0.751262286  0.749587030  0.996725069
     0.998155460  0.501561202  0.496437331
     0.498338236  0.001613677  0.504206297
     0.498017107  0.748126248  0.250441737
     0.251879157  0.502175886  0.750120894
     0.749814571  0.249871935  0.500278266
     0.246604232  0.003554931  0.993696899
     0.258256019  0.005929699  0.508691498
     0.239646671  0.495518970  0.996432892
     0.244763798  0.489792916  0.503965157
     0.755532446  0.000638271  0.007314211
     0.749823846  0.005366714  0.493458813
     0.755309064  0.509319941  0.991976743
     0.752857864  0.496435180  0.506975371
     0.999506504  0.244442774  0.992839834
     0.994497619  0.250018007  0.507117649
     0.996556022  0.753446098  0.006520703
     0.993840747  0.741567869  0.491746571
     0.490784202  0.244925682  0.008620663
     0.503345760  0.246973489  0.493219088
     0.504501804  0.760237088  0.004159691
     0.510311786  0.755148879  0.496607689
     0.011461849  0.009386320  0.244320409
     0.990449872  0.988960602  0.755966151
     0.993081097  0.489624855  0.258449619
     0.001759813  0.513920642  0.747333124
     0.485665306  0.998172635  0.253156301
     0.510231955  0.006443032  0.742066412
     0.510613550  0.507923851  0.230038734
     0.492024732  0.490441268  0.770583020
     0.237933233  0.245096068  0.242145566
     0.261872633  0.252263047  0.753321690
     0.257777887  0.758015732  0.271254949
     0.241429840  0.742306223  0.729294498
     0.760911952  0.259280769  0.256068713
     0.739555015  0.239184253  0.744389908
     0.747814407  0.738958954  0.247098303
     0.755108424  0.762001640  0.758382525

  ion indices of the primitive-cell ions
   primitive index   ion index
                 1           1
                 2           2
                 3           3
                 4           4
                 5           5
                 6           6
                 7           7
                 8           8
                 9           9
                10          10
                11          11
                12          12
                13          13
                14          14
                15          15
                16          16
                17          17
                18          18
                19          19
                20          20
                21          21
                22          22
                23          23
                24          24
                25          25
                26          26
                27          27
                28          28
                29          29
                30          30
                31          31
                32          32
                33          33
                34          34
                35          35
                36          36
                37          37
                38          38
                39          39
                40          40
                41          41
                42          42
                43          43
                44          44
                45          45
                46          46
                47          47
                48          48

 KPOINTS: agbii

Automatic generation of k-mesh.
Space group operators:
 irot       det(A)        alpha          n_x          n_y          n_z        tau_x        tau_y        tau_z
    1     1.000000     0.000000     1.000000     0.000000     0.000000     0.000000     0.000000     0.000000
 TETIRR: Found    192 inequivalent tetrahedra from      384

[...]
   3.33351009  3.21173803  9.58714287
   3.28136639  9.64821160  3.45297034
   3.07371851  9.44872866  9.28183271
   9.68392027  3.30105149  3.25982767
   9.41255228  3.04575921  9.47403646
   9.51761081  9.40614468  3.14612502
   9.61091419  9.69996104  9.65263187

 k-point   1 :   0.0000 0.0000 0.0000  plane waves:   18613
 k-point   2 :   0.2500 0.0000 0.0000  plane waves:   18533
 k-point   3 :   0.0000-0.0000-0.2500  plane waves:   18533
 k-point   4 :   0.5000 0.0000 0.0000  plane waves:   18480
 k-point   5 :  -0.0000-0.0000 0.5000  plane waves:   18480
 k-point   6 :  -0.0000 0.2500 0.0000  plane waves:   18533
 k-point   7 :   0.2500 0.2500 0.0000  plane waves:   18509
 k-point   8 :   0.0000-0.2500-0.2500  plane waves:   18509
 k-point   9 :   0.5000 0.2500-0.0000  plane waves:   18506
 k-point  10 :  -0.0000-0.2500 0.5000  plane waves:   18506
 k-point  11 :  -0.2500 0.2500-0.0000  plane waves:   18509
 k-point  12 :  -0.0000-0.2500 0.2500  plane waves:   18509
 k-point  13 :  -0.0000 0.5000 0.0000  plane waves:   18476
 k-point  14 :   0.2500 0.5000-0.0000  plane waves:   18506
 k-point  15 :  -0.0000 0.5000-0.2500  plane waves:   18506
 k-point  16 :   0.5000 0.5000-0.0000  plane waves:   18528
 k-point  17 :  -0.0000 0.5000 0.5000  plane waves:   18528
 k-point  18 :   0.2500 0.0000 0.2500  plane waves:   18509
 k-point  19 :   0.5000 0.0000 0.2500  plane waves:   18506
 k-point  20 :  -0.2500 0.0000 0.5000  plane waves:   18506
 k-point  21 :  -0.2500 0.0000 0.2500  plane waves:   18509
 k-point  22 :   0.2500 0.2500 0.2500  plane waves:   18499
 k-point  23 :   0.5000 0.2500 0.2500  plane waves:   18478
 k-point  24 :  -0.2500-0.2500 0.5000  plane waves:   18478
 k-point  25 :  -0.2500 0.2500 0.2500  plane waves:   18513
 k-point  26 :  -0.2500-0.2500 0.2500  plane waves:   18512
 k-point  27 :   0.2500 0.5000 0.2500  plane waves:   18478
 k-point  28 :   0.5000 0.5000 0.2500  plane waves:   18500
 k-point  29 :  -0.2500 0.5000 0.5000  plane waves:   18500
 k-point  30 :  -0.2500 0.5000 0.2500  plane waves:   18478
 k-point  31 :   0.2500-0.2500 0.2500  plane waves:   18509
 k-point  32 :   0.5000-0.2500 0.2500  plane waves:   18478
 k-point  33 :  -0.2500 0.2500 0.5000  plane waves:   18478
 k-point  34 :   0.5000 0.0000 0.5000  plane waves:   18528
 k-point  35 :   0.5000 0.2500 0.5000  plane waves:   18500
 k-point  36 :   0.5000 0.5000 0.5000  plane waves:   18504

 maximum and minimum number of plane-waves per node :     18613    18476

 maximum number of plane-waves:     18613
 maximum index in each direction:
   IXMAX=   16   IYMAX=   16   IZMAX=   16
   IXMIN=  -16   IYMIN=  -16   IZMIN=  -16

 serial   3D FFT for wavefunctions
 parallel 3D FFT for charge:
    minimum data exchange during FFTs selected (reduces bandwidth)

 Broyden mixing: mesh for mixing (old mesh)
   NGX = 33   NGY = 33   NGZ = 33
  (NGX  =100   NGY  =100   NGZ  =100)
  gives a total of  35937 points

 initial charge density was supplied:
 number of electron     352.0000514 magnetization
 keeping initial charge density in first step

 Maximum index for augmentation-charges         5612 (set IRDMAX)

 First call to EWALD:  gamma=   0.139
 Maximum number of real-space cells 3x 3x 3
 Maximum number of reciprocal cells 3x 3x 3

--------------------------------------- Iteration      1(   1)  ---------------------------------------

 BZINTS: Fermi energy:    2.054980;  352.000000 electrons
         Band energy:-0.758780E+03;  BLOECHL correction:    0.000000

 eigenvalue-minimisations  : 10472
 total energy-change (2. order) :-0.1199644E+03  (-0.2797961E-06)
 number of electron     352.0000514 magnetization
 augmentation part      -23.1229157 magnetization

 Broyden mixing:
  rms(total) = 0.66986E-03    rms(broyden)= 0.66982E-03
  rms(prec ) = 0.78106E-03
  weight for this iteration     100.00

 Free energy of the ion-electron system (eV)
  alpha Z        PSCENC =       225.93321621
  Ewald energy   TEWEN  =    -13867.60127926
  -Hartree energ DENC   =     -6081.35616215
  -exchange      EXHF   =         0.00000000
  -V(xc)+E(xc)   XCENC  =     -1392.35636318
  PAW double counting   =     22641.85041144   -20499.37777277
  entropy T*S    EENTRO =         0.00000000
  eigenvalues    EBANDS =      -758.78016186
  atomic energy  EATOM  =     19611.72375700
  Solvation  Ediel_sol  =         0.00000000
  free energy    TOTEN  =      -119.96435458 eV

  energy without entropy =     -119.96435458  energy(sigma->0) =     -119.96435458

--------------------------------------- Iteration      1(   2)  ---------------------------------------

[...]

 eigenvalue-minimisations  :  8208
 total energy-change (2. order) : 0.2029265E-07  (-0.1152992E-06)
 number of electron     352.0000514 magnetization
 augmentation part      -23.1229157 magnetization

 Free energy of the ion-electron system (eV)
  alpha Z        PSCENC =       225.93321621
  Ewald energy   TEWEN  =    -13867.60127926
  -Hartree energ DENC   =     -6081.36092708
  -exchange      EXHF   =         0.00000000
  -V(xc)+E(xc)   XCENC  =     -1392.35588585
  PAW double counting   =     22641.42064419   -20498.94885603
  entropy T*S    EENTRO =         0.00000000
  eigenvalues    EBANDS =      -758.77502372
  atomic energy  EATOM  =     19611.72375700
  Solvation  Ediel_sol  =         0.00000000
  free energy    TOTEN  =      -119.96435456 eV

  energy without entropy =     -119.96435456  energy(sigma->0) =     -119.96435456

 average (electrostatic) potential at core
  the test charge radii are     1.1249  1.4024  1.1875
  (the norm of the test charge is              1.0000)
       1 -75.1913       2 -75.0047       3 -75.0618       4 -75.0626       5 -75.0036
       6 -75.0699       7 -75.0681       8 -75.1937       9 -65.5010      10 -65.5290
      11 -65.5274      12 -65.5358      13 -65.5362      14 -65.4757      15 -65.4760
      16 -65.5108      17 -93.3323      18 -93.2368      19 -93.3183      20 -93.3190
      21 -93.3118      22 -93.3280      23 -93.2302      24 -93.3376      25 -93.3085
      26 -93.3299      27 -93.3306      28 -93.2386      29 -93.2285      30 -93.3384
      31 -93.3178      32 -93.3203      33 -93.0026      34 -93.0004      35 -93.0812
      36 -93.1905      37 -93.1950      38 -93.0822      39 -93.1004      40 -93.0947
      41 -93.0789      42 -93.1798      43 -93.0785      44 -93.0827      45 -93.0112
      46 -93.0112      47 -93.1709      48 -93.0743

 E-fermi :   2.0550     XC(G=0):  -7.8000     alpha+bet : -7.7654

 k-point     1 :       0.0000    0.0000    0.0000
  band No.  band energies     occupation
      1     -10.8450      2.00000
      2     -10.7165      2.00000
      3     -10.6691      2.00000
      4     -10.5353      2.00000
      5     -10.4820      2.00000
      6     -10.2576      2.00000
      7     -10.2237      2.00000
      8     -10.0451      2.00000
      9      -9.8881      2.00000
     10      -9.8832      2.00000
     11      -9.8664      2.00000
     12      -9.8569      2.00000
     13      -9.8414      2.00000
     14      -9.8073      2.00000
     15      -9.8052      2.00000
     16      -9.7419      2.00000
     17      -9.7316      2.00000
     18      -9.7156      2.00000
     19      -9.7069      2.00000
     20      -9.7027      2.00000
     21      -9.6835      2.00000
     22      -9.6609      2.00000
     23      -9.6538      2.00000
     24      -9.6262      2.00000
     25      -9.6161      2.00000
     26      -9.6067      2.00000
     27      -9.5900      2.00000
     28      -9.5639      2.00000
     29      -9.5546      2.00000
     30      -9.5516      2.00000
     31      -9.5434      2.00000
     32      -9.5120      2.00000
     33      -8.2235      2.00000
     34      -8.1244      2.00000
     35      -8.1127      2.00000
     36      -7.8829      2.00000
     37      -7.8567      2.00000
     38      -7.6476      2.00000
     39      -7.6313      2.00000
     40      -7.6304      2.00000
     41      -1.8224      2.00000
     42      -1.7617      2.00000
     43      -1.7187      2.00000
     44      -1.7036      2.00000
     45      -1.6562      2.00000
     46      -1.5869      2.00000
     47      -1.5327      2.00000
     48      -1.4800      2.00000
     49      -1.4705      2.00000
     50      -1.4400      2.00000
     51      -1.4378      2.00000
     52      -1.3949      2.00000
     53      -1.3582      2.00000
     54      -1.3289      2.00000
     55      -1.3202      2.00000
     56      -1.2803      2.00000
     57      -1.2366      2.00000
     58      -1.2275      2.00000
     59      -1.1596      2.00000
     60      -1.1131      2.00000
[...]
    197       4.7956      0.00000
    198       4.8259      0.00000
    199       4.8323      0.00000
    200       4.9507      0.00000
    201       5.0706      0.00000
    202       5.2683      0.00000
    203       5.5783      0.00000
    204       5.7211      0.00000
    205       5.9124      0.00000
    206       5.9327      0.00000
    207       5.9451      0.00000
    208       5.9837      0.00000
    209       7.1544      0.00000
    210       7.2603      0.00000
    211       7.2713      0.00000

[...]

 k-point    36 :       0.5000    0.5000    0.5000
  band No.  band energies     occupation
      1     -10.7730      2.00000
      2     -10.7664      2.00000
      3     -10.6425      2.00000
      4     -10.6396      2.00000
      5     -10.3849      2.00000
      6     -10.3844      2.00000
      7     -10.1225      2.00000
      8     -10.1146      2.00000
      9      -9.9081      2.00000
     10      -9.9028      2.00000
     11      -9.8262      2.00000
     12      -9.8150      2.00000
     13      -9.7918      2.00000
     14      -9.7894      2.00000
     15      -9.7505      2.00000
     16      -9.7503      2.00000
     17      -9.7304      2.00000
     18      -9.7255      2.00000
     19      -9.7064      2.00000
     20      -9.7014      2.00000
     21      -9.6961      2.00000
     22      -9.6929      2.00000
     23      -9.6416      2.00000
     24      -9.6332      2.00000
     25      -9.6177      2.00000
     26      -9.6134      2.00000
     27      -9.5881      2.00000
     28      -9.5842      2.00000
     29      -9.5542      2.00000
     30      -9.5505      2.00000
     31      -9.5404      2.00000
     32      -9.5398      2.00000
     33      -8.2011      2.00000
     34      -8.1982      2.00000
     35      -8.0057      2.00000
     36      -8.0048      2.00000
     37      -7.7652      2.00000
     38      -7.7650      2.00000
     39      -7.5906      2.00000
     40      -7.5840      2.00000
     41      -1.7870      2.00000
     42      -1.7781      2.00000
     43      -1.6777      2.00000
     44      -1.6773      2.00000
     45      -1.6337      2.00000
     46      -1.6310      2.00000
     47      -1.5406      2.00000
     48      -1.5404      2.00000
     49      -1.4930      2.00000
     50      -1.4897      2.00000
     51      -1.4624      2.00000
     52      -1.4569      2.00000
     53      -1.3807      2.00000
     54      -1.3790      2.00000
     55      -1.2896      2.00000
     56      -1.2877      2.00000
     57      -1.2719      2.00000
     58      -1.2709      2.00000
     59      -1.1453      2.00000
     60      -1.1378      2.00000
[...]
    197       4.9489      0.00000
    198       4.9506      0.00000
    199       5.0281      0.00000
    200       5.0312      0.00000
    201       5.5364      0.00000
    202       5.5373      0.00000
    203       5.5655      0.00000
    204       5.5661      0.00000
    205       5.6013      0.00000
    206       5.6166      0.00000
    207       5.8002      0.00000
    208       5.8016      0.00000
    209       7.2419      0.00000
    210       7.2437      0.00000
    211       7.5047      0.00000

 soft charge-density along one line, spin component           1
         0         1         2         3         4         5         6         7         8         9
 total charge-density along one line

------------------------ aborting loop because EDIFF is reached ----------------------------------------

 total charge

# of ion       s       p       d       tot
    1        0.253   0.158   9.312   9.723
    2        0.238   0.147   9.323   9.708
    3        0.241   0.151   9.320   9.712
    4        0.241   0.151   9.320   9.712
    5        0.238   0.147   9.323   9.708
    6        0.242   0.151   9.319   9.712
    7        0.241   0.151   9.320   9.712
    8        0.254   0.160   9.311   9.725
    9        1.835   1.397   0.139   3.371
   10        1.834   1.400   0.138   3.372
   11        1.834   1.400   0.138   3.372
   12        1.834   1.401   0.138   3.372
   13        1.834   1.401   0.138   3.373
   14        1.833   1.400   0.135   3.368
   15        1.833   1.400   0.135   3.368
   16        1.835   1.397   0.139   3.371
   17        1.518   2.742   0.012   4.272
   18        1.514   2.742   0.017   4.273
   19        1.518   2.742   0.011   4.271
   20        1.518   2.742   0.011   4.271
   21        1.518   2.743   0.012   4.273
   22        1.518   2.742   0.013   4.273
   23        1.514   2.742   0.017   4.274
   24        1.518   2.742   0.012   4.272
   25        1.518   2.743   0.012   4.273
   26        1.518   2.742   0.013   4.273
   27        1.518   2.742   0.012   4.272
   28        1.514   2.742   0.017   4.273
   29        1.514   2.742   0.017   4.274
   30        1.518   2.742   0.012   4.272
   31        1.518   2.742   0.011   4.271
   32        1.518   2.742   0.011   4.271
   33        1.513   2.748   0.016   4.276
   34        1.513   2.748   0.016   4.276
   35        1.516   2.743   0.015   4.274
   36        1.517   2.745   0.013   4.275
   37        1.517   2.745   0.013   4.275
   38        1.516   2.743   0.015   4.274
   39        1.514   2.743   0.015   4.272
   40        1.514   2.743   0.015   4.272
   41        1.516   2.744   0.015   4.274
   42        1.517   2.746   0.012   4.275
   43        1.514   2.743   0.015   4.272
   44        1.514   2.743   0.015   4.272
   45        1.513   2.747   0.016   4.276
   46        1.513   2.747   0.016   4.276
   47        1.517   2.746   0.012   4.275
   48        1.515   2.744   0.015   4.274
tot         65.135 100.209  76.089 241.433

  FREE ENERGIE OF THE ION-ELECTRON SYSTEM (eV)
  free  energy   TOTEN  =      -119.96435456 eV

  energy  without entropy=     -119.96435456  energy(sigma->0) =     -119.96435456

 writing wavefunctions

 total charge

# of ion       s       p       d       tot
    1        0.253   0.158   9.312   9.723
    2        0.238   0.147   9.323   9.708
    3        0.241   0.151   9.320   9.712
    4        0.241   0.151   9.320   9.712
    5        0.238   0.147   9.323   9.708
    6        0.242   0.151   9.319   9.712
    7        0.241   0.151   9.320   9.712
    8        0.254   0.160   9.311   9.725
    9        1.835   1.397   0.139   3.371
   10        1.834   1.400   0.138   3.372
   11        1.834   1.400   0.138   3.372
   12        1.834   1.401   0.138   3.372
   13        1.834   1.401   0.138   3.373
   14        1.833   1.400   0.135   3.368
   15        1.833   1.400   0.135   3.368
   16        1.835   1.397   0.139   3.371
   17        1.518   2.742   0.012   4.272
   18        1.514   2.742   0.017   4.273
   19        1.518   2.742   0.011   4.271
   20        1.518   2.742   0.011   4.271
   21        1.518   2.743   0.012   4.273
   22        1.518   2.742   0.013   4.273
   23        1.514   2.742   0.017   4.274
   24        1.518   2.742   0.012   4.272
   25        1.518   2.743   0.012   4.273
   26        1.518   2.742   0.013   4.273
   27        1.518   2.742   0.012   4.272
   28        1.514   2.742   0.017   4.273
   29        1.514   2.742   0.017   4.274
   30        1.518   2.742   0.012   4.272
   31        1.518   2.742   0.011   4.271
   32        1.518   2.742   0.011   4.271
   33        1.513   2.748   0.016   4.276
   34        1.513   2.748   0.016   4.276
   35        1.516   2.743   0.015   4.274
   36        1.517   2.745   0.013   4.275
   37        1.517   2.745   0.013   4.275
   38        1.516   2.743   0.015   4.274
   39        1.514   2.743   0.015   4.272
   40        1.514   2.743   0.015   4.272
   41        1.516   2.744   0.015   4.274
   42        1.517   2.746   0.012   4.275
   43        1.514   2.743   0.015   4.272
   44        1.514   2.743   0.015   4.272
   45        1.513   2.747   0.016   4.276
   46        1.513   2.747   0.016   4.276
   47        1.517   2.746   0.012   4.275
   48        1.515   2.744   0.015   4.274
tot         65.135 100.209  76.089 241.433

 BZINTS: Fermi energy:    2.055009;  352.000000 electrons
         Band energy:-0.758775E+03;  BLOECHL correction:    0.000000