 vasp.6.1.0 28Jan20 (build Jan 13 2021 21:44:47) complex

 executed on             LinuxIFC date 2021.09.12  19:23:39

 INCAR:
 POTCAR:    PAW_PBE Ag 02Apr2005
 POTCAR:    PAW_PBE Bi 08Apr2002
 POTCAR:    PAW_PBE I 08Apr2002
|           W    W    AA    RRRRR   N    N  II  N    N   GGGG   !!!           |
|           W    W   A  A   R    R  NN   N  II  NN   N  G    G  !!!           |
|           W    W  A    A  R    R  N N  N  II  N N  N  G       !!!           |
|           W WW W  AAAAAA  RRRRR   N  N N  II  N  N N  G  GGG   !            |
|           WW  WW  A    A  R   R   N   NN  II  N   NN  G    G                |
|           W    W  A    A  R    R  N    N  II  N    N   GGGG   !!!           |
|     For optimal performance we recommend to set                             |
|       NCORE = 4 - approx SQRT(number of cores).                             |
|     This setting can greatly improve the performance of VASP for DFT.       |
|     The default, NCORE=1 might be grossly inefficient on modern             |
|     multi-core architectures or massively parallel machines. Do your        |
|     own testing!!!!                                                         |
|     Unfortunately you need to use the default for GW and RPA                |
|     calculations (for HF NCORE is supported but not extensively tested      |
|     yet).                                                                   |

 POTCAR:    PAW_PBE Ag 02Apr2005
   VRHFIN =Ag : s1 d10

   TITEL  = PAW_PBE Ag 02Apr2005
   POMASS =  107.868; ZVAL   =   11.000    mass and valenz
   ENMAX  =  249.844; ENMIN  =  187.383 eV

 POTCAR:    PAW_PBE Bi 08Apr2002
   VRHFIN =Bi:

[...]

 POTCAR:    PAW_PBE I 08Apr2002
   VRHFIN =I : s2p5

   TITEL  = PAW_PBE I 08Apr2002
   POMASS =  126.904; ZVAL   =    7.000    mass and valenz
   ENMAX  =  175.647; ENMIN  =  131.735 eV

  PAW_PBE Ag 02Apr2005                  :
  PAW_PBE Bi 08Apr2002                  :
  PAW_PBE I 08Apr2002                   :

 POSCAR: Generation Seed Number
  positions in direct lattice
  velocities in cartesian coordinates
 exchange correlation table for  LEXCH =        8
   RHO(1)=    0.500       N(1)  =     2000
   RHO(2)=  100.500       N(2)  =     4000

 ion  position               nearest neighbor table
   1  0.024  0.995  0.989-  34 2.94  17 2.99  27 3.06  25 3.12  33 3.19  21 3.56
   2  0.251  0.224  0.975-  29 2.96  17 2.96  42 2.96  25 2.96
   3  0.977  0.510  0.505-  28 2.94  24 2.99  36 3.07  35 3.13  26 3.16  20 3.56
   4  0.996  0.752  0.747-  28 3.02  34 3.02  36 3.07  27 3.08  48 3.23  44 3.32
   5  0.497  0.998  0.503-  38 3.02  32 3.03  30 3.07  37 3.07  18 3.23  22 3.31
   6  0.752  0.525  0.276-  35 2.95  24 2.96  47 2.97  39 2.97
   7  0.524  0.755  0.260-  32 2.94  47 2.99  37 3.07  39 3.14  31 3.15  43 3.56
   8  0.477  0.241  0.744-  38 2.95  42 2.98  30 3.06  40 3.14  29 3.15  46 3.56
   9  0.501  0.497  0.003-  39 3.07  29 3.07  23 3.14  19 3.14  31 3.19  40 3.19
  10  0.754  0.751  0.002-  27 3.03  47 3.05  21 3.13  23 3.14  31 3.19  48 3.20
  11  0.001  0.252  0.248-  25 3.07  35 3.07  41 3.14  45 3.14  33 3.18  26 3.18
  12  0.254  0.998  0.249-  37 3.03  17 3.05  43 3.12  41 3.14  33 3.19  18 3.20
  13  0.750  0.000  0.750-  22 3.11  38 3.11  34 3.11  48 3.12  46 3.14  21 3.14
  14  0.247  0.499  0.749-  36 3.03  42 3.06  20 3.13  19 3.14  40 3.19  44 3.20
  15  0.747  0.251  0.501-  30 3.03  24 3.06  46 3.13  45 3.14  26 3.19  22 3.20
  16  0.250  0.750  0.501-  44 3.11  32 3.11  28 3.11  18 3.12  20 3.14  43 3.14
  17  0.258  0.993  0.009-   2 2.96   1 2.99  12 3.05
  18  0.243  0.995  0.501-  16 3.12  12 3.20   5 3.23
  19  0.254  0.509  0.996-   9 3.14  14 3.14
  20  0.257  0.503  0.503-  14 3.13  16 3.14   3 3.56
  21  0.744  0.997  0.997-  10 3.13  13 3.14   1 3.56
  22  0.758  1.000  0.505-  13 3.11  15 3.20   5 3.31
  23  0.747  0.505  0.991-   9 3.14  10 3.14
  24  0.743  0.492  0.507-   6 2.96   3 2.99  15 3.06
  25  0.020  0.240  0.008-   2 2.96  11 3.07   1 3.12
  26  0.998  0.262  0.498-   3 3.16  11 3.18  15 3.19
  27  0.992  0.756  0.989-  10 3.03   1 3.06   4 3.08
  28  0.006  0.740  0.510-   3 2.94   4 3.02  16 3.11
  29  0.481  0.257  0.992-   2 2.96   9 3.07   8 3.15
  30  0.508  0.239  0.505-  15 3.03   8 3.06   5 3.07
  31  0.503  0.748  0.013-   7 3.15   9 3.19  10 3.19
  32  0.495  0.760  0.490-   7 2.94   5 3.03  16 3.11
  33  0.003  0.002  0.239-  11 3.18   1 3.19  12 3.19
  34  0.995  0.990  0.759-   1 2.94   4 3.02  13 3.11
  35  0.981  0.492  0.259-   6 2.95  11 3.07   3 3.13
  36  0.008  0.511  0.745-  14 3.03   4 3.07   3 3.07
  37  0.492  0.995  0.261-  12 3.03   7 3.07   5 3.07
  38  0.506  0.011  0.740-   8 2.95   5 3.02  13 3.11
  39  0.521  0.509  0.243-   6 2.97   9 3.07   7 3.14
  40  0.498  0.487  0.753-   8 3.14   9 3.19  14 3.19
  41  0.247  0.246  0.260-  11 3.14  12 3.14
  42  0.243  0.258  0.745-   2 2.96   8 2.98  14 3.06
  43  0.244  0.753  0.253-  12 3.12  16 3.14   7 3.56
  44  0.258  0.750  0.745-  16 3.11  14 3.20   4 3.32
  45  0.754  0.241  0.255-  11 3.14  15 3.14
  46  0.757  0.247  0.747-  15 3.13  13 3.14   8 3.56
  47  0.758  0.756  0.242-   6 2.97   7 2.99  10 3.05
  48  0.743  0.755  0.750-  13 3.12  10 3.20   4 3.23

  Warning from LATTYP: Got some problem with cell dimensions!
  Tried to take original basis but could not verify dimensions!
  LATTYP: Found a triclinic cell.
 ALAT       =    12.7074122921
 B/A-ratio  =     1.4141459717
 C/A-ratio  =     0.9999253137
 COS(alpha) =     0.0000102332
 COS(beta)  =     0.0001567312
 COS(gamma) =     0.7070196659

  Lattice vectors:

 A1 = ( -12.7074122304,  -0.0009309393,  -0.0008375649)
 A2 = ( -12.7061704931,  12.7074393871,   0.0001142161)
 A3 = (  -0.0011539339,  -0.0008557331, -12.7064631419)

Analysis of symmetry for initial positions (statically):
 Subroutine PRICEL returns:
 Original cell was already a primitive cell.

 Routine SETGRP: Setting up the symmetry group for a
 triclinic supercell.

 Subroutine GETGRP returns: Found  1 space group operations
 (whereof  1 operations were pure point group operations)
 out of a pool of  2 trial point group operations.

The static configuration has the point symmetry C_1 .

Analysis of symmetry for dynamics (positions and initial velocities):
 Subroutine PRICEL returns:
 Original cell was already a primitive cell.

 Routine SETGRP: Setting up the symmetry group for a
 triclinic supercell.

 Subroutine GETGRP returns: Found  1 space group operations
 (whereof  1 operations were pure point group operations)
 out of a pool of  2 trial point group operations.

The dynamic configuration has the point symmetry C_1 .

 Subroutine INISYM returns: Found  1 space group operations
 (whereof  1 operations are pure point group operations),
 and found     1 'primitive' translations

                                     Primitive cell

  volume of cell :    2051.9731

  direct lattice vectors                    reciprocal lattice vectors
    12.707412230  0.000930939  0.000837565     0.078694229 -0.000007689 -0.000007146
     0.001241737 12.708370326  0.000951781    -0.000005764  0.078688296 -0.000005299
     0.001153934  0.000855733 12.706463142    -0.000005187 -0.000005894  0.078700107

  length of vectors
    12.707412292 12.708370423 12.706463223     0.078694230  0.078688297  0.078700108

  position of ions in fractional coordinates (direct lattice)
     0.023778927  0.995172480  0.988813103
     0.250807075  0.223937641  0.975404369
     0.977052307  0.510111941  0.505208190
     0.996487869  0.752326821  0.747126824
     0.497259167  0.997778200  0.503001595
     0.751731407  0.524824705  0.276155695
     0.523750660  0.755497427  0.260342344
     0.476890532  0.240625136  0.744499841
     0.500630350  0.497382526  0.003169655
     0.753967855  0.751497508  0.002070609
     0.000512061  0.251563675  0.248346154
     0.253910917  0.998449818  0.248990624
     0.750092187  0.000161187  0.749911145
     0.246716060  0.498679399  0.749261856
     0.746667447  0.251104955  0.501454352
     0.250464193  0.749789681  0.500614305
     0.257985753  0.993351451  0.008710434
     0.243050394  0.994938573  0.500828038
     0.253926636  0.509214498  0.996134494
     0.257102481  0.503178068  0.503369909
     0.743627109  0.997151459  0.997047153
     0.757634747  0.999757969  0.505336511
     0.747122185  0.504517225  0.991050098
     0.742680389  0.491588572  0.506805592
     0.020356651  0.239967563  0.007716203
     0.997803382  0.262038014  0.498456937
     0.992362656  0.756181258  0.989449008
     0.006015337  0.739880671  0.510001462
     0.480762837  0.257106800  0.992179439
     0.508258009  0.239304384  0.505454209
     0.502985300  0.747938612  0.013370398
     0.494775891  0.760001600  0.490115645
     0.002971057  0.001735598  0.239025436
     0.994561127  0.989916011  0.759375643
     0.981105849  0.492321630  0.259293686
     0.008287953  0.511166869  0.744860968
     0.492353206  0.994676676  0.261152880
     0.505814795  0.010613891  0.740342837
     0.521000754  0.508626114  0.243382597
     0.497772614  0.486986233  0.752517613
     0.246987253  0.245521714  0.259529593
     0.242759521  0.258045048  0.744894858
     0.243664632  0.752977605  0.253482346
     0.257990075  0.749848108  0.745252798
     0.753913353  0.240558214  0.254575636
     0.756934116  0.246827219  0.747251917
     0.757976009  0.755639022  0.242396296
     0.742692455  0.755000803  0.750240575

  ion indices of the primitive-cell ions
   primitive index   ion index
                 1           1
                 2           2
                 3           3
                 4           4
                 5           5
                 6           6
                 7           7
                 8           8
                 9           9
                10          10
                11          11
                12          12
                13          13
                14          14
                15          15
                16          16
                17          17
                18          18
                19          19
                20          20
                21          21
                22          22
                23          23
                24          24
                25          25
                26          26
                27          27
                28          28
                29          29
                30          30
                31          31
                32          32
                33          33
                34          34
                35          35
                36          36
                37          37
                38          38
                39          39
                40          40
                41          41
                42          42
                43          43
                44          44
                45          45
                46          46
                47          47
                48          48

 KPOINTS: agbii

Automatic generation of k-mesh.
Space group operators:
 irot       det(A)        alpha          n_x          n_y          n_z        tau_x        tau_y        tau_z
[...]
   3.08602528  3.28019546  9.46542798
   3.09757443  9.56956200  3.22178484
   3.28017733  9.53022536  9.47045699
   9.58088024  3.05802256  3.23561635
   9.61984262  3.13811581  9.49579785
   9.63313162  9.60385358  3.08135366
   9.43950242  9.59616321  9.53424486

 k-point   1 :   0.0000 0.0000 0.0000  plane waves:   18349
 k-point   2 :   0.2500 0.0000 0.0000  plane waves:   18465
 k-point   3 :   0.5000 0.0000 0.0000  plane waves:   18464
 k-point   4 :   0.0000 0.2500-0.0000  plane waves:   18465
 k-point   5 :   0.2500 0.2500 0.0000  plane waves:   18429
 k-point   6 :   0.5000 0.2500 0.0000  plane waves:   18418
 k-point   7 :  -0.2500 0.2500-0.0000  plane waves:   18429
 k-point   8 :   0.0000 0.5000-0.0000  plane waves:   18464
 k-point   9 :   0.2500 0.5000 0.0000  plane waves:   18418
 k-point  10 :   0.5000 0.5000 0.0000  plane waves:   18400
 k-point  11 :  -0.0000 0.0000 0.2500  plane waves:   18465
 k-point  12 :   0.2500 0.0000 0.2500  plane waves:   18429
 k-point  13 :   0.5000 0.0000 0.2500  plane waves:   18418
 k-point  14 :  -0.2500 0.0000 0.2500  plane waves:   18429
 k-point  15 :  -0.0000 0.2500 0.2500  plane waves:   18429
 k-point  16 :   0.2500 0.2500 0.2500  plane waves:   18430
 k-point  17 :   0.5000 0.2500 0.2500  plane waves:   18421
 k-point  18 :  -0.2500 0.2500 0.2500  plane waves:   18430
 k-point  19 :   0.0000 0.5000 0.2500  plane waves:   18418
 k-point  20 :   0.2500 0.5000 0.2500  plane waves:   18421
 k-point  21 :   0.5000 0.5000 0.2500  plane waves:   18432
 k-point  22 :  -0.2500 0.5000 0.2500  plane waves:   18425
 k-point  23 :  -0.0000-0.2500 0.2500  plane waves:   18429
 k-point  24 :   0.2500-0.2500 0.2500  plane waves:   18430
 k-point  25 :   0.5000-0.2500 0.2500  plane waves:   18422
 k-point  26 :  -0.2500-0.2500 0.2500  plane waves:   18430
 k-point  27 :  -0.0000 0.0000 0.5000  plane waves:   18464
 k-point  28 :   0.2500 0.0000 0.5000  plane waves:   18418
 k-point  29 :   0.5000 0.0000 0.5000  plane waves:   18400
 k-point  30 :  -0.0000 0.2500 0.5000  plane waves:   18418
 k-point  31 :   0.2500 0.2500 0.5000  plane waves:   18425
 k-point  32 :   0.5000 0.2500 0.5000  plane waves:   18432
 k-point  33 :  -0.2500 0.2500 0.5000  plane waves:   18421
 k-point  34 :  -0.0000 0.5000 0.5000  plane waves:   18400
 k-point  35 :   0.2500 0.5000 0.5000  plane waves:   18432
 k-point  36 :   0.5000 0.5000 0.5000  plane waves:   18336

 maximum and minimum number of plane-waves per node :     18465    18336

 maximum number of plane-waves:     18465
 maximum index in each direction:
   IXMAX=   16   IYMAX=   16   IZMAX=   16
   IXMIN=  -16   IYMIN=  -16   IZMIN=  -16

 serial   3D FFT for wavefunctions
 parallel 3D FFT for charge:
    minimum data exchange during FFTs selected (reduces bandwidth)

 Broyden mixing: mesh for mixing (old mesh)
   NGX = 33   NGY = 33   NGZ = 33
  (NGX  =100   NGY  =100   NGZ  =100)
  gives a total of  35937 points

 initial charge density was supplied:
 number of electron     352.0000416 magnetization
 keeping initial charge density in first step

 Maximum index for augmentation-charges         5632 (set IRDMAX)

 First call to EWALD:  gamma=   0.139
 Maximum number of real-space cells 3x 3x 3
 Maximum number of reciprocal cells 3x 3x 3

--------------------------------------- Iteration      1(   1)  ---------------------------------------

 BZINTS: Fermi energy:    2.097265;  352.000000 electrons
         Band energy:-0.746530E+03;  BLOECHL correction:    0.000000

 eigenvalue-minimisations  : 11064
 total energy-change (2. order) :-0.1199674E+03  (-0.3077328E-06)
 number of electron     352.0000416 magnetization
 augmentation part      -23.1254168 magnetization

 Broyden mixing:
  rms(total) = 0.67030E-03    rms(broyden)= 0.67027E-03
  rms(prec ) = 0.79559E-03
  weight for this iteration     100.00

 Free energy of the ion-electron system (eV)
  alpha Z        PSCENC =       226.95149166
  Ewald energy   TEWEN  =    -13912.71688970
  -Hartree energ DENC   =     -6049.61224361
  -exchange      EXHF   =         0.00000000
  -V(xc)+E(xc)   XCENC  =     -1392.24441396
  PAW double counting   =     22654.36266481   -20511.90199069
  entropy T*S    EENTRO =         0.00000000
  eigenvalues    EBANDS =      -746.52975879
  atomic energy  EATOM  =     19611.72375700
  Solvation  Ediel_sol  =         0.00000000
  free energy    TOTEN  =      -119.96738327 eV

  energy without entropy =     -119.96738327  energy(sigma->0) =     -119.96738327

--------------------------------------- Iteration      1(   2)  ---------------------------------------

[...]

 eigenvalue-minimisations  :  8216
 total energy-change (2. order) : 0.9750511E-07  (-0.1321998E-06)
 number of electron     352.0000416 magnetization
 augmentation part      -23.1254168 magnetization

 Free energy of the ion-electron system (eV)
  alpha Z        PSCENC =       226.95149166
  Ewald energy   TEWEN  =    -13912.71688970
  -Hartree energ DENC   =     -6049.61377402
  -exchange      EXHF   =         0.00000000
  -V(xc)+E(xc)   XCENC  =     -1392.24390304
  PAW double counting   =     22653.92503499   -20511.46512666
  entropy T*S    EENTRO =         0.00000000
  eigenvalues    EBANDS =      -746.52797340
  atomic energy  EATOM  =     19611.72375700
  Solvation  Ediel_sol  =         0.00000000
  free energy    TOTEN  =      -119.96738317 eV

  energy without entropy =     -119.96738317  energy(sigma->0) =     -119.96738317

 average (electrostatic) potential at core
  the test charge radii are     1.1249  1.4024  1.1875
  (the norm of the test charge is              1.0000)
       1 -75.0273       2 -75.1536       3 -75.0252       4 -74.9681       5 -74.9668
       6 -75.1527       7 -75.0233       8 -75.0247       9 -65.4383      10 -65.4957
      11 -65.4378      12 -65.4941      13 -65.4677      14 -65.4937      15 -65.4950
      16 -65.4664      17 -93.2010      18 -93.2898      19 -93.2883      20 -93.3071
      21 -93.3000      22 -93.2754      23 -93.2894      24 -93.1925      25 -93.0594
      26 -93.1531      27 -93.0437      28 -92.9687      29 -93.0491      30 -93.0463
      31 -93.1528      32 -92.9654      33 -93.1470      34 -92.9667      35 -93.0562
      36 -93.0455      37 -93.0410      38 -92.9707      39 -93.0486      40 -93.1530
      41 -93.2909      42 -93.1893      43 -93.3024      44 -93.2709      45 -93.2930
      46 -93.3092      47 -93.1962      48 -93.2933

 E-fermi :   2.0971     XC(G=0):  -7.8224     alpha+bet : -7.8004

 k-point     1 :       0.0000    0.0000    0.0000
  band No.  band energies     occupation
      1     -10.8153      2.00000
      2     -10.6842      2.00000
      3     -10.6386      2.00000
      4     -10.5035      2.00000
      5     -10.4509      2.00000
      6     -10.2248      2.00000
      7     -10.1911      2.00000
      8     -10.0106      2.00000
      9      -9.8596      2.00000
     10      -9.8497      2.00000
     11      -9.8370      2.00000
     12      -9.8148      2.00000
     13      -9.8101      2.00000
     14      -9.7773      2.00000
     15      -9.7747      2.00000
     16      -9.7072      2.00000
     17      -9.6969      2.00000
     18      -9.6787      2.00000
     19      -9.6764      2.00000
     20      -9.6750      2.00000
     21      -9.6499      2.00000
     22      -9.6270      2.00000
     23      -9.6202      2.00000
     24      -9.5920      2.00000
     25      -9.5803      2.00000
     26      -9.5729      2.00000
     27      -9.5543      2.00000
     28      -9.5277      2.00000
     29      -9.5215      2.00000
     30      -9.5149      2.00000
     31      -9.5085      2.00000
     32      -9.4759      2.00000
     33      -8.1858      2.00000
     34      -8.0871      2.00000
     35      -8.0754      2.00000
     36      -7.8467      2.00000
     37      -7.8192      2.00000
     38      -7.6117      2.00000
     39      -7.5957      2.00000
     40      -7.5939      2.00000
     41      -1.7930      2.00000
     42      -1.7333      2.00000
     43      -1.6859      2.00000
     44      -1.6764      2.00000
     45      -1.6253      2.00000
     46      -1.5574      2.00000
     47      -1.4963      2.00000
     48      -1.4442      2.00000
     49      -1.4404      2.00000
     50      -1.4046      2.00000
     51      -1.4006      2.00000
     52      -1.3625      2.00000
     53      -1.3241      2.00000
     54      -1.2901      2.00000
     55      -1.2833      2.00000
     56      -1.2464      2.00000
     57      -1.2021      2.00000
     58      -1.1955      2.00000
     59      -1.1248      2.00000
     60      -1.0765      2.00000
[...]
    197       4.8370      0.00000
    198       4.8666      0.00000
    199       4.8730      0.00000
    200       4.9874      0.00000
    201       5.1116      0.00000
    202       5.3048      0.00000
    203       5.6145      0.00000
    204       5.7551      0.00000
    205       5.9576      0.00000
    206       5.9796      0.00000
    207       5.9922      0.00000
    208       6.0262      0.00000
    209       7.1852      0.00000
    210       7.2900      0.00000
    211       7.3027      0.00000

[...]

 k-point    36 :       0.5000    0.5000    0.5000
  band No.  band energies     occupation
      1     -10.7397      2.00000
      2     -10.7373      2.00000
      3     -10.6107      2.00000
      4     -10.6100      2.00000
      5     -10.3540      2.00000
      6     -10.3531      2.00000
      7     -10.0858      2.00000
      8     -10.0838      2.00000
      9      -9.8764      2.00000
     10      -9.8740      2.00000
     11      -9.7846      2.00000
     12      -9.7834      2.00000
     13      -9.7587      2.00000
     14      -9.7577      2.00000
     15      -9.7171      2.00000
     16      -9.7169      2.00000
     17      -9.6951      2.00000
     18      -9.6937      2.00000
     19      -9.6713      2.00000
     20      -9.6688      2.00000
     21      -9.6656      2.00000
     22      -9.6645      2.00000
     23      -9.6030      2.00000
     24      -9.6019      2.00000
     25      -9.5813      2.00000
     26      -9.5804      2.00000
     27      -9.5528      2.00000
     28      -9.5504      2.00000
     29      -9.5171      2.00000
     30      -9.5152      2.00000
     31      -9.5070      2.00000
     32      -9.5039      2.00000
     33      -8.1633      2.00000
     34      -8.1611      2.00000
     35      -7.9691      2.00000
     36      -7.9680      2.00000
     37      -7.7286      2.00000
     38      -7.7284      2.00000
     39      -7.5517      2.00000
     40      -7.5506      2.00000
     41      -1.7528      2.00000
     42      -1.7518      2.00000
     43      -1.6487      2.00000
     44      -1.6472      2.00000
     45      -1.6037      2.00000
     46      -1.5995      2.00000
     47      -1.5124      2.00000
     48      -1.5093      2.00000
     49      -1.4572      2.00000
     50      -1.4566      2.00000
     51      -1.4275      2.00000
     52      -1.4261      2.00000
     53      -1.3488      2.00000
     54      -1.3471      2.00000
     55      -1.2553      2.00000
     56      -1.2523      2.00000
     57      -1.2383      2.00000
     58      -1.2333      2.00000
     59      -1.1086      2.00000
     60      -1.1062      2.00000
[...]
    197       4.9922      0.00000
    198       4.9935      0.00000
    199       5.0663      0.00000
    200       5.0705      0.00000
    201       5.5760      0.00000
    202       5.5835      0.00000
    203       5.6077      0.00000
    204       5.6094      0.00000
    205       5.6402      0.00000
    206       5.6421      0.00000
    207       5.8363      0.00000
    208       5.8414      0.00000
    209       7.2727      0.00000
    210       7.2746      0.00000
    211       7.5433      0.00000

 soft charge-density along one line, spin component           1
         0         1         2         3         4         5         6         7         8         9
 total charge-density along one line

------------------------ aborting loop because EDIFF is reached ----------------------------------------

 total charge

# of ion       s       p       d       tot
    1        0.241   0.151   9.320   9.713
    2        0.253   0.159   9.312   9.724
    3        0.241   0.151   9.320   9.712
    4        0.239   0.147   9.323   9.709
    5        0.238   0.147   9.323   9.709
    6        0.253   0.159   9.312   9.724
    7        0.241   0.152   9.320   9.713
    8        0.241   0.152   9.320   9.713
    9        1.833   1.401   0.135   3.370
   10        1.834   1.401   0.138   3.374
   11        1.833   1.401   0.136   3.370
   12        1.834   1.402   0.139   3.374
   13        1.835   1.398   0.139   3.373
   14        1.834   1.401   0.138   3.373
   15        1.834   1.401   0.139   3.374
   16        1.835   1.398   0.139   3.372
   17        1.514   2.742   0.017   4.274
   18        1.518   2.742   0.013   4.273
   19        1.518   2.742   0.011   4.271
   20        1.518   2.742   0.012   4.272
   21        1.518   2.742   0.012   4.272
   22        1.518   2.743   0.012   4.273
   23        1.518   2.742   0.011   4.271
   24        1.514   2.742   0.017   4.274
   25        1.514   2.743   0.015   4.272
   26        1.517   2.745   0.013   4.275
   27        1.516   2.743   0.015   4.274
   28        1.513   2.748   0.016   4.277
   29        1.515   2.743   0.015   4.272
   30        1.516   2.744   0.015   4.274
   31        1.517   2.746   0.013   4.276
   32        1.513   2.748   0.016   4.277
   33        1.518   2.746   0.012   4.276
   34        1.513   2.748   0.016   4.277
   35        1.514   2.743   0.015   4.273
   36        1.516   2.743   0.015   4.274
   37        1.516   2.744   0.015   4.274
   38        1.513   2.748   0.016   4.277
   39        1.515   2.743   0.015   4.272
   40        1.517   2.746   0.013   4.276
   41        1.518   2.742   0.011   4.271
   42        1.514   2.743   0.017   4.274
   43        1.518   2.742   0.012   4.273
   44        1.518   2.743   0.012   4.273
   45        1.518   2.742   0.011   4.271
   46        1.519   2.742   0.012   4.272
   47        1.514   2.742   0.017   4.274
   48        1.518   2.742   0.013   4.273
tot         65.138 100.219  76.096 241.452

  FREE ENERGIE OF THE ION-ELECTRON SYSTEM (eV)
  free  energy   TOTEN  =      -119.96738317 eV

  energy  without entropy=     -119.96738317  energy(sigma->0) =     -119.96738317

 writing wavefunctions

 total charge

# of ion       s       p       d       tot
    1        0.241   0.151   9.320   9.713
    2        0.253   0.159   9.312   9.724
    3        0.241   0.151   9.320   9.712
    4        0.239   0.147   9.323   9.709
    5        0.238   0.147   9.323   9.709
    6        0.253   0.159   9.312   9.724
    7        0.241   0.152   9.320   9.713
    8        0.241   0.152   9.320   9.713
    9        1.833   1.401   0.135   3.370
   10        1.834   1.401   0.138   3.374
   11        1.833   1.401   0.136   3.370
   12        1.834   1.402   0.139   3.374
   13        1.835   1.398   0.139   3.373
   14        1.834   1.401   0.138   3.373
   15        1.834   1.401   0.139   3.374
   16        1.835   1.398   0.139   3.372
   17        1.514   2.742   0.017   4.274
   18        1.518   2.742   0.013   4.273
   19        1.518   2.742   0.011   4.271
   20        1.518   2.742   0.012   4.272
   21        1.518   2.742   0.012   4.272
   22        1.518   2.743   0.012   4.273
   23        1.518   2.742   0.011   4.271
   24        1.514   2.742   0.017   4.274
   25        1.514   2.743   0.015   4.272
   26        1.517   2.745   0.013   4.275
   27        1.516   2.743   0.015   4.274
   28        1.513   2.748   0.016   4.277
   29        1.515   2.743   0.015   4.272
   30        1.516   2.744   0.015   4.274
   31        1.517   2.746   0.013   4.276
   32        1.513   2.748   0.016   4.277
   33        1.518   2.746   0.012   4.276
   34        1.513   2.748   0.016   4.277
   35        1.514   2.743   0.015   4.273
   36        1.516   2.743   0.015   4.274
   37        1.516   2.744   0.015   4.274
   38        1.513   2.748   0.016   4.277
   39        1.515   2.743   0.015   4.272
   40        1.517   2.746   0.013   4.276
   41        1.518   2.742   0.011   4.271
   42        1.514   2.743   0.017   4.274
   43        1.518   2.742   0.012   4.273
   44        1.518   2.743   0.012   4.273
   45        1.518   2.742   0.011   4.271
   46        1.519   2.742   0.012   4.272
   47        1.514   2.742   0.017   4.274
   48        1.518   2.742   0.013   4.273
tot         65.138 100.219  76.096 241.452

 BZINTS: Fermi energy:    2.097112;  352.000000 electrons
         Band energy:-0.746528E+03;  BLOECHL correction:   -0.000000