 vasp.6.1.0 28Jan20 (build Jan 13 2021 21:44:47) complex

 executed on             LinuxIFC date 2021.09.12  19:33:12

 INCAR:
 POTCAR:    PAW_PBE Ag 02Apr2005
 POTCAR:    PAW_PBE Bi 08Apr2002
 POTCAR:    PAW_PBE I 08Apr2002
|           W    W    AA    RRRRR   N    N  II  N    N   GGGG   !!!           |
|           W    W   A  A   R    R  NN   N  II  NN   N  G    G  !!!           |
|           W    W  A    A  R    R  N N  N  II  N N  N  G       !!!           |
|           W WW W  AAAAAA  RRRRR   N  N N  II  N  N N  G  GGG   !            |
|           WW  WW  A    A  R   R   N   NN  II  N   NN  G    G                |
|           W    W  A    A  R    R  N    N  II  N    N   GGGG   !!!           |
|     For optimal performance we recommend to set                             |
|       NCORE = 4 - approx SQRT(number of cores).                             |
|     This setting can greatly improve the performance of VASP for DFT.       |
|     The default, NCORE=1 might be grossly inefficient on modern             |
|     multi-core architectures or massively parallel machines. Do your        |
|     own testing!!!!                                                         |
|     Unfortunately you need to use the default for GW and RPA                |
|     calculations (for HF NCORE is supported but not extensively tested      |
|     yet).                                                                   |

 POTCAR:    PAW_PBE Ag 02Apr2005
   VRHFIN =Ag : s1 d10

   TITEL  = PAW_PBE Ag 02Apr2005
   POMASS =  107.868; ZVAL   =   11.000    mass and valenz
   ENMAX  =  249.844; ENMIN  =  187.383 eV

 POTCAR:    PAW_PBE Bi 08Apr2002
   VRHFIN =Bi:

[...]

 POTCAR:    PAW_PBE I 08Apr2002
   VRHFIN =I : s2p5

   TITEL  = PAW_PBE I 08Apr2002
   POMASS =  126.904; ZVAL   =    7.000    mass and valenz
   ENMAX  =  175.647; ENMIN  =  131.735 eV

  PAW_PBE Ag 02Apr2005                  :
  PAW_PBE Bi 08Apr2002                  :
  PAW_PBE I 08Apr2002                   :

 POSCAR: Generation Seed Number
  positions in direct lattice
  velocities in cartesian coordinates
 exchange correlation table for  LEXCH =        8
   RHO(1)=    0.500       N(1)  =     2000
   RHO(2)=  100.500       N(2)  =     4000

 ion  position               nearest neighbor table
   1  0.997  0.998  0.003-  33 3.02  27 3.02  25 3.07  34 3.08  21 3.23  17 3.31
   2  0.476  0.511  0.005-  31 2.94  19 2.98  39 3.07  40 3.13  29 3.18  23 3.56
   3  0.977  0.241  0.245-  33 2.94  45 2.99  25 3.07  35 3.14  26 3.16  41 3.55
   4  0.023  0.755  0.761-  27 2.94  44 2.99  34 3.07  36 3.13  28 3.17  48 3.55
   5  0.523  0.995  0.489-  37 2.94  22 2.99  32 3.07  30 3.13  38 3.18  18 3.56
   6  0.500  0.753  0.247-  31 3.02  37 3.02  32 3.07  39 3.08  47 3.27  43 3.27
   7  0.251  0.524  0.775-  40 2.96  19 2.97  44 2.97  36 2.97
   8  0.750  0.225  0.476-  30 2.96  26 2.96  45 2.97  22 2.97
   9  0.246  0.251  0.001-  25 3.03  19 3.06  41 3.12  42 3.14  29 3.19  17 3.20
  10  0.750  0.750  0.000-  27 3.11  31 3.11  47 3.11  21 3.12  23 3.14  48 3.14
  11  1.000  0.498  0.503-  26 3.07  36 3.07  20 3.14  24 3.14  28 3.18  35 3.19
  12  0.250  0.000  0.250-  17 3.11  33 3.11  37 3.11  43 3.11  41 3.14  18 3.14
  13  0.754  0.998  0.749-  34 3.03  22 3.05  48 3.12  46 3.14  38 3.19  21 3.20
  14  0.746  0.498  0.249-  39 3.03  45 3.05  23 3.13  24 3.14  35 3.20  47 3.20
  15  0.500  0.252  0.748-  30 3.07  40 3.07  46 3.14  42 3.14  29 3.18  38 3.18
  16  0.253  0.752  0.501-  32 3.04  44 3.06  18 3.12  20 3.14  28 3.19  43 3.20
  17  0.257  1.000  0.005-  12 3.11   9 3.20   1 3.31
  18  0.243  0.997  0.497-  16 3.12  12 3.14   5 3.56
  19  0.242  0.492  0.006-   7 2.97   2 2.98   9 3.06
  20  0.246  0.504  0.491-  11 3.14  16 3.14
  21  0.743  0.995  0.000-  10 3.12  13 3.20   1 3.23
  22  0.757  0.994  0.508-   8 2.97   5 2.99  13 3.05
  23  0.757  0.503  0.003-  14 3.13  10 3.14   2 3.56
  24  0.753  0.509  0.496-  11 3.14  14 3.14
  25  0.008  0.239  0.005-   9 3.03   1 3.07   3 3.07
  26  0.980  0.257  0.493-   8 2.96  11 3.07   3 3.16
  27  0.994  0.760  0.991-   4 2.94   1 3.02  10 3.11
  28  0.002  0.748  0.512-   4 3.17  11 3.18  16 3.19
  29  0.497  0.262  0.998-   2 3.18  15 3.18   9 3.19
  30  0.519  0.241  0.508-   8 2.96  15 3.07   5 3.13
  31  0.506  0.741  0.010-   2 2.94   6 3.02  10 3.11
  32  0.492  0.756  0.489-  16 3.04   5 3.07   6 3.07
  33  0.005  0.011  0.240-   3 2.94   1 3.02  12 3.11
  34  0.992  0.994  0.761-  13 3.03   4 3.07   1 3.08
  35  0.998  0.487  0.252-   3 3.14  11 3.19  14 3.20
  36  0.020  0.509  0.743-   7 2.97  11 3.07   4 3.13
  37  0.494  0.991  0.260-   5 2.94   6 3.02  12 3.11
  38  0.503  0.002  0.738-   5 3.18  15 3.18  13 3.19
  39  0.508  0.511  0.244-  14 3.03   2 3.07   6 3.08
  40  0.481  0.493  0.759-   7 2.96  15 3.07   2 3.13
  41  0.256  0.247  0.247-   9 3.12  12 3.14   3 3.55
  42  0.253  0.241  0.754-  15 3.14   9 3.14
  43  0.243  0.755  0.250-  12 3.11  16 3.20   6 3.27
  44  0.258  0.755  0.742-   7 2.97   4 2.99  16 3.06
  45  0.742  0.258  0.245-   8 2.97   3 2.99  14 3.05
  46  0.746  0.245  0.759-  15 3.14  13 3.14
  47  0.757  0.750  0.245-  10 3.11  14 3.20   6 3.27
  48  0.744  0.753  0.753-  13 3.12  10 3.14   4 3.55

  LATTYP: Found a triclinic cell.
 ALAT       =    12.7073427549
 B/A-ratio  =     1.4140144740
 C/A-ratio  =     1.7322055091
 COS(alpha) =     0.0000703115
 COS(beta)  =     0.5775005577
 COS(gamma) =     0.7070692389

  Lattice vectors:

 A1 = (  -0.0012469294,  -0.0009860153, -12.7073426555)
 A2 = (  12.7049815978,   0.0001075128, -12.7061260896)
 A3 = ( -12.7084014110, -12.7074788253, -12.7095528869)

Analysis of symmetry for initial positions (statically):
 Subroutine PRICEL returns:
 Original cell was already a primitive cell.

 Routine SETGRP: Setting up the symmetry group for a
 triclinic supercell.

 Subroutine GETGRP returns: Found  1 space group operations
 (whereof  1 operations were pure point group operations)
 out of a pool of  2 trial point group operations.

The static configuration has the point symmetry C_1 .

Analysis of symmetry for dynamics (positions and initial velocities):
 Subroutine PRICEL returns:
 Original cell was already a primitive cell.

 Routine SETGRP: Setting up the symmetry group for a
 triclinic supercell.

 Subroutine GETGRP returns: Found  1 space group operations
 (whereof  1 operations were pure point group operations)
 out of a pool of  2 trial point group operations.

The dynamic configuration has the point symmetry C_1 .

 Subroutine INISYM returns: Found  1 space group operations
 (whereof  1 operations are pure point group operations),
 and found     1 'primitive' translations

                                     Primitive cell

  volume of cell :    2051.4442

  direct lattice vectors                    reciprocal lattice vectors
    12.706228527  0.001093528  0.001216566     0.078701561 -0.000005735 -0.000007722
     0.000925954 12.705399282  0.000993666    -0.000006773  0.078706697 -0.000006107
     0.001246929  0.000986015 12.707342655    -0.000007534 -0.000006154  0.078694660

  length of vectors
    12.706228632 12.705399354 12.707342755     0.078701561  0.078706698  0.078694661

  position of ions in fractional coordinates (direct lattice)
     0.996731991  0.998095567  0.002858166
     0.476495234  0.510985832  0.004504743
     0.976875046  0.240601493  0.244868420
     0.023264126  0.754980202  0.760931454
     0.523161229  0.995304556  0.489197612
     0.500003979  0.752942900  0.247301176
     0.250746083  0.524127710  0.774554080
     0.749557180  0.225091118  0.475838448
     0.246388731  0.251181641  0.001236869
     0.750106057  0.749998369  0.000298512
     0.999825363  0.497576004  0.502759430
     0.249870046  0.000005185  0.249612276
     0.753546558  0.998387837  0.748522095
     0.746238784  0.498338821  0.248682208
     0.500045125  0.251824921  0.748161118
     0.253396504  0.751513593  0.501371870
     0.257298101  0.999774305  0.005043250
     0.243424469  0.997114498  0.496716757
     0.242372384  0.491720642  0.005618030
     0.246408533  0.504346956  0.491131353
     0.742753186  0.995071332  0.000438462
     0.757453602  0.993854804  0.508341895
     0.756739098  0.503274480  0.002910663
     0.753202683  0.509456740  0.495524597
     0.007992280  0.239159564  0.004892801
     0.979649146  0.257219088  0.492700805
     0.994494903  0.760388636  0.990631854
     0.002440938  0.747985110  0.512217390
     0.497463348  0.261899067  0.998103490
     0.519399090  0.240816903  0.507507106
     0.505660801  0.740550786  0.009835803
     0.491902505  0.755816809  0.488988229
     0.005433645  0.010911993  0.240276025
     0.991945402  0.994196520  0.760690429
     0.997536425  0.486638256  0.252244281
     0.019727507  0.509051922  0.743072304
     0.494347547  0.990527071  0.259642422
     0.502527265  0.001768635  0.738138513
     0.507948604  0.510664052  0.243914236
     0.481102505  0.492555470  0.759266440
     0.256480211  0.246946073  0.246819217
     0.253481595  0.241200605  0.754232042
     0.242685563  0.755178659  0.249645027
     0.257512571  0.755377241  0.741718261
     0.742317513  0.258018574  0.244688142
     0.746478964  0.245391494  0.759209169
     0.757207223  0.750109635  0.245023468
     0.743614426  0.752787047  0.753345131

  ion indices of the primitive-cell ions
   primitive index   ion index
                 1           1
                 2           2
                 3           3
                 4           4
                 5           5
                 6           6
                 7           7
                 8           8
                 9           9
                10          10
                11          11
                12          12
                13          13
                14          14
                15          15
                16          16
                17          17
                18          18
                19          19
                20          20
                21          21
                22          22
                23          23
                24          24
                25          25
                26          26
                27          27
                28          28
                29          29
                30          30
                31          31
                32          32
                33          33
                34          34
                35          35
                36          36
                37          37
                38          38
                39          39
                40          40
                41          41
                42          42
                43          43
                44          44
                45          45
                46          46
                47          47
                48          48

 KPOINTS: agbii

Automatic generation of k-mesh.
Space group operators:
 irot       det(A)        alpha          n_x          n_y          n_z        tau_x        tau_y        tau_z
    1     1.000000     0.000000     1.000000     0.000000     0.000000     0.000000     0.000000     0.000000
[...]
   3.22195889  3.06557086  9.58483305
   3.08462878  9.59535792  3.17337054
   3.27363790  9.59838240  9.42633197
   9.43259998  3.27928202  3.11049552
   9.48610621  3.11936179  9.64868304
   9.62224812  9.53151204  3.11526372
   9.45017125  9.56601597  9.57466739

 k-point   1 :   0.0000 0.0000 0.0000  plane waves:   18349
 k-point   2 :   0.2500-0.0000-0.0000  plane waves:   18465
 k-point   3 :   0.5000-0.0000 0.0000  plane waves:   18464
 k-point   4 :  -0.0000 0.2500 0.0000  plane waves:   18465
 k-point   5 :   0.2500 0.2500-0.0000  plane waves:   18429
 k-point   6 :   0.5000 0.2500 0.0000  plane waves:   18403
 k-point   7 :  -0.2500 0.2500-0.0000  plane waves:   18429
 k-point   8 :  -0.0000 0.5000-0.0000  plane waves:   18464
 k-point   9 :   0.2500 0.5000 0.0000  plane waves:   18403
 k-point  10 :   0.5000 0.5000-0.0000  plane waves:   18400
 k-point  11 :  -0.0000-0.0000 0.2500  plane waves:   18465
 k-point  12 :   0.2500-0.0000 0.2500  plane waves:   18429
 k-point  13 :   0.5000-0.0000 0.2500  plane waves:   18400
 k-point  14 :  -0.2500-0.0000 0.2500  plane waves:   18429
 k-point  15 :  -0.0000 0.2500 0.2500  plane waves:   18429
 k-point  16 :   0.2500 0.2500 0.2500  plane waves:   18430
 k-point  17 :   0.5000 0.2500 0.2500  plane waves:   18412
 k-point  18 :  -0.2500 0.2500 0.2500  plane waves:   18430
 k-point  19 :  -0.0000 0.5000 0.2500  plane waves:   18403
 k-point  20 :   0.2500 0.5000 0.2500  plane waves:   18411
 k-point  21 :   0.5000 0.5000 0.2500  plane waves:   18432
 k-point  22 :  -0.2500 0.5000 0.2500  plane waves:   18410
 k-point  23 :  -0.0000-0.2500 0.2500  plane waves:   18429
 k-point  24 :   0.2500-0.2500 0.2500  plane waves:   18430
 k-point  25 :   0.5000-0.2500 0.2500  plane waves:   18411
 k-point  26 :  -0.2500-0.2500 0.2500  plane waves:   18430
 k-point  27 :  -0.0000-0.0000 0.5000  plane waves:   18464
 k-point  28 :   0.2500-0.0000 0.5000  plane waves:   18401
 k-point  29 :   0.5000-0.0000 0.5000  plane waves:   18400
 k-point  30 :   0.0000 0.2500 0.5000  plane waves:   18400
 k-point  31 :   0.2500 0.2500 0.5000  plane waves:   18413
 k-point  32 :   0.5000 0.2500 0.5000  plane waves:   18432
 k-point  33 :  -0.2500 0.2500 0.5000  plane waves:   18410
 k-point  34 :  -0.0000 0.5000 0.5000  plane waves:   18400
 k-point  35 :   0.2500 0.5000 0.5000  plane waves:   18432
 k-point  36 :   0.5000 0.5000 0.5000  plane waves:   18336

 maximum and minimum number of plane-waves per node :     18465    18336

 maximum number of plane-waves:     18465
 maximum index in each direction:
   IXMAX=   16   IYMAX=   16   IZMAX=   16
   IXMIN=  -16   IYMIN=  -16   IZMIN=  -16

 serial   3D FFT for wavefunctions
 parallel 3D FFT for charge:
    minimum data exchange during FFTs selected (reduces bandwidth)

 Broyden mixing: mesh for mixing (old mesh)
   NGX = 33   NGY = 33   NGZ = 33
  (NGX  =100   NGY  =100   NGZ  =100)
  gives a total of  35937 points

 initial charge density was supplied:
 number of electron     352.0000353 magnetization
 keeping initial charge density in first step

 Maximum index for augmentation-charges         5633 (set IRDMAX)

 First call to EWALD:  gamma=   0.139
 Maximum number of real-space cells 3x 3x 3
 Maximum number of reciprocal cells 3x 3x 3

--------------------------------------- Iteration      1(   1)  ---------------------------------------

 BZINTS: Fermi energy:    2.098225;  352.000000 electrons
         Band energy:-0.745739E+03;  BLOECHL correction:   -0.000000

 eigenvalue-minimisations  :  9920
 total energy-change (2. order) :-0.1199670E+03  (-0.2448628E-06)
 number of electron     352.0000353 magnetization
 augmentation part      -23.1247524 magnetization

 Broyden mixing:
  rms(total) = 0.65205E-03    rms(broyden)= 0.65203E-03
  rms(prec ) = 0.76134E-03
  weight for this iteration     100.00

 Free energy of the ion-electron system (eV)
  alpha Z        PSCENC =       227.00999750
  Ewald energy   TEWEN  =    -13916.04382702
  -Hartree energ DENC   =     -6047.16939856
  -exchange      EXHF   =         0.00000000
  -V(xc)+E(xc)   XCENC  =     -1392.23602957
  PAW double counting   =     22654.38584302   -20511.89817221
  entropy T*S    EENTRO =         0.00000000
  eigenvalues    EBANDS =      -745.73917562
  atomic energy  EATOM  =     19611.72375700
  Solvation  Ediel_sol  =         0.00000000
  free energy    TOTEN  =      -119.96700546 eV

  energy without entropy =     -119.96700546  energy(sigma->0) =     -119.96700546

--------------------------------------- Iteration      1(   2)  ---------------------------------------

[...]

 eigenvalue-minimisations  :  8216
 total energy-change (2. order) :-0.1267836E-07  (-0.1068373E-06)
 number of electron     352.0000353 magnetization
 augmentation part      -23.1247524 magnetization

 Free energy of the ion-electron system (eV)
  alpha Z        PSCENC =       227.00999750
  Ewald energy   TEWEN  =    -13916.04382702
  -Hartree energ DENC   =     -6047.17026668
  -exchange      EXHF   =         0.00000000
  -V(xc)+E(xc)   XCENC  =     -1392.23554279
  PAW double counting   =     22653.96105849   -20511.47412615
  entropy T*S    EENTRO =         0.00000000
  eigenvalues    EBANDS =      -745.73805582
  atomic energy  EATOM  =     19611.72375700
  Solvation  Ediel_sol  =         0.00000000
  free energy    TOTEN  =      -119.96700548 eV

  energy without entropy =     -119.96700548  energy(sigma->0) =     -119.96700548

 average (electrostatic) potential at core
  the test charge radii are     1.1249  1.4024  1.1875
  (the norm of the test charge is              1.0000)
       1 -74.9641       2 -75.0246       3 -75.0207       4 -75.0215       5 -75.0230
       6 -74.9646       7 -75.1458       8 -75.1486       9 -65.4891      10 -65.4671
      11 -65.4355      12 -65.4627      13 -65.4933      14 -65.4945      15 -65.4348
      16 -65.4902      17 -93.2702      18 -93.2998      19 -93.1870      20 -93.2888
      21 -93.2905      22 -93.1957      23 -93.3068      24 -93.2905      25 -93.0395
      26 -93.0434      27 -92.9657      28 -93.1422      29 -93.1457      30 -93.0555
      31 -92.9691      32 -93.0390      33 -92.9665      34 -93.0390      35 -93.1553
      36 -93.0530      37 -92.9643      38 -93.1490      39 -93.0437      40 -93.0559
      41 -93.3037      42 -93.2927      43 -93.2787      44 -93.1889      45 -93.1911
      46 -93.2929      47 -93.2824      48 -93.3061

 E-fermi :   2.0985     XC(G=0):  -7.8236     alpha+bet : -7.8024

 k-point     1 :       0.0000    0.0000    0.0000
  band No.  band energies     occupation
      1     -10.8145      2.00000
      2     -10.6833      2.00000
      3     -10.6378      2.00000
      4     -10.5020      2.00000
      5     -10.4511      2.00000
      6     -10.2240      2.00000
      7     -10.1905      2.00000
      8     -10.0089      2.00000
      9      -9.8600      2.00000
     10      -9.8496      2.00000
     11      -9.8345      2.00000
     12      -9.8153      2.00000
     13      -9.8049      2.00000
     14      -9.7759      2.00000
     15      -9.7737      2.00000
     16      -9.7040      2.00000
     17      -9.6943      2.00000
     18      -9.6774      2.00000
     19      -9.6740      2.00000
     20      -9.6711      2.00000
     21      -9.6487      2.00000
     22      -9.6233      2.00000
     23      -9.6187      2.00000
     24      -9.5903      2.00000
     25      -9.5774      2.00000
     26      -9.5703      2.00000
     27      -9.5525      2.00000
     28      -9.5255      2.00000
     29      -9.5187      2.00000
     30      -9.5133      2.00000
     31      -9.5068      2.00000
     32      -9.4742      2.00000
     33      -8.1829      2.00000
     34      -8.0845      2.00000
     35      -8.0727      2.00000
     36      -7.8437      2.00000
     37      -7.8174      2.00000
     38      -7.6097      2.00000
     39      -7.5926      2.00000
     40      -7.5914      2.00000
     41      -1.7913      2.00000
     42      -1.7327      2.00000
     43      -1.6837      2.00000
     44      -1.6750      2.00000
     45      -1.6241      2.00000
     46      -1.5562      2.00000
     47      -1.4939      2.00000
     48      -1.4420      2.00000
     49      -1.4357      2.00000
     50      -1.4010      2.00000
     51      -1.3982      2.00000
     52      -1.3597      2.00000
     53      -1.3231      2.00000
     54      -1.2882      2.00000
     55      -1.2802      2.00000
     56      -1.2443      2.00000
     57      -1.1993      2.00000
     58      -1.1931      2.00000
     59      -1.1207      2.00000
     60      -1.0739      2.00000
[...]
    197       4.8413      0.00000
    198       4.8693      0.00000
    199       4.8751      0.00000
    200       4.9901      0.00000
    201       5.1125      0.00000
    202       5.3065      0.00000
    203       5.6140      0.00000
    204       5.7532      0.00000
    205       5.9602      0.00000
    206       5.9812      0.00000
    207       5.9952      0.00000
    208       6.0283      0.00000
    209       7.1892      0.00000
    210       7.2920      0.00000
    211       7.3042      0.00000

[...]

 k-point    36 :       0.5000    0.5000    0.5000
  band No.  band energies     occupation
      1     -10.7401      2.00000
      2     -10.7353      2.00000
      3     -10.6105      2.00000
      4     -10.6083      2.00000
      5     -10.3535      2.00000
      6     -10.3526      2.00000
      7     -10.0855      2.00000
      8     -10.0814      2.00000
      9      -9.8766      2.00000
     10      -9.8721      2.00000
     11      -9.7852      2.00000
     12      -9.7797      2.00000
     13      -9.7580      2.00000
     14      -9.7553      2.00000
     15      -9.7153      2.00000
     16      -9.7150      2.00000
     17      -9.6940      2.00000
     18      -9.6908      2.00000
     19      -9.6695      2.00000
     20      -9.6651      2.00000
     21      -9.6644      2.00000
     22      -9.6620      2.00000
     23      -9.6011      2.00000
     24      -9.5975      2.00000
     25      -9.5792      2.00000
     26      -9.5776      2.00000
     27      -9.5505      2.00000
     28      -9.5480      2.00000
     29      -9.5148      2.00000
     30      -9.5137      2.00000
     31      -9.5052      2.00000
     32      -9.5025      2.00000
     33      -8.1604      2.00000
     34      -8.1585      2.00000
     35      -7.9664      2.00000
     36      -7.9653      2.00000
     37      -7.7263      2.00000
     38      -7.7258      2.00000
     39      -7.5505      2.00000
     40      -7.5470      2.00000
     41      -1.7531      2.00000
     42      -1.7474      2.00000
     43      -1.6474      2.00000
     44      -1.6456      2.00000
     45      -1.6027      2.00000
     46      -1.5980      2.00000
     47      -1.5109      2.00000
     48      -1.5085      2.00000
     49      -1.4539      2.00000
     50      -1.4530      2.00000
     51      -1.4269      2.00000
     52      -1.4234      2.00000
     53      -1.3462      2.00000
     54      -1.3447      2.00000
     55      -1.2525      2.00000
     56      -1.2501      2.00000
     57      -1.2347      2.00000
     58      -1.2308      2.00000
     59      -1.1077      2.00000
     60      -1.1030      2.00000
[...]
    197       4.9959      0.00000
    198       4.9965      0.00000
    199       5.0695      0.00000
    200       5.0739      0.00000
    201       5.5810      0.00000
    202       5.5820      0.00000
    203       5.6079      0.00000
    204       5.6118      0.00000
    205       5.6353      0.00000
    206       5.6428      0.00000
    207       5.8395      0.00000
    208       5.8409      0.00000
    209       7.2758      0.00000
    210       7.2781      0.00000
    211       7.5438      0.00000

 soft charge-density along one line, spin component           1
         0         1         2         3         4         5         6         7         8         9
 total charge-density along one line

------------------------ aborting loop because EDIFF is reached ----------------------------------------

 total charge

# of ion       s       p       d       tot
    1        0.239   0.147   9.323   9.709
    2        0.241   0.152   9.320   9.713
    3        0.241   0.151   9.320   9.712
    4        0.241   0.151   9.320   9.713
    5        0.241   0.151   9.320   9.713
    6        0.238   0.147   9.323   9.708
    7        0.252   0.158   9.313   9.722
    8        0.253   0.158   9.313   9.723
    9        1.834   1.402   0.139   3.374
   10        1.835   1.399   0.139   3.373
   11        1.833   1.401   0.135   3.370
   12        1.835   1.398   0.139   3.373
   13        1.834   1.402   0.139   3.375
   14        1.834   1.402   0.138   3.374
   15        1.833   1.402   0.136   3.371
   16        1.834   1.401   0.138   3.374
   17        1.518   2.743   0.012   4.273
   18        1.518   2.742   0.012   4.273
   19        1.514   2.742   0.017   4.274
   20        1.518   2.742   0.011   4.271
   21        1.518   2.742   0.013   4.273
   22        1.514   2.742   0.017   4.274
   23        1.519   2.742   0.012   4.272
   24        1.518   2.742   0.011   4.271
   25        1.516   2.744   0.015   4.274
   26        1.515   2.743   0.015   4.272
   27        1.513   2.748   0.016   4.277
   28        1.517   2.746   0.012   4.276
   29        1.517   2.746   0.013   4.276
   30        1.514   2.743   0.015   4.272
   31        1.513   2.748   0.016   4.277
   32        1.516   2.744   0.015   4.274
   33        1.513   2.748   0.016   4.277
   34        1.516   2.744   0.015   4.274
   35        1.517   2.745   0.013   4.275
   36        1.515   2.743   0.015   4.272
   37        1.513   2.748   0.016   4.277
   38        1.517   2.746   0.013   4.276
   39        1.516   2.743   0.015   4.274
   40        1.514   2.743   0.015   4.272
   41        1.519   2.742   0.012   4.273
   42        1.518   2.742   0.011   4.272
   43        1.518   2.743   0.012   4.273
   44        1.514   2.742   0.017   4.274
   45        1.514   2.742   0.017   4.274
   46        1.518   2.742   0.011   4.272
   47        1.518   2.743   0.013   4.273
   48        1.519   2.742   0.012   4.273
tot         65.136 100.220  76.098 241.454

  FREE ENERGIE OF THE ION-ELECTRON SYSTEM (eV)
  free  energy   TOTEN  =      -119.96700548 eV

  energy  without entropy=     -119.96700548  energy(sigma->0) =     -119.96700548

 writing wavefunctions

 total charge

# of ion       s       p       d       tot
    1        0.239   0.147   9.323   9.709
    2        0.241   0.152   9.320   9.713
    3        0.241   0.151   9.320   9.712
    4        0.241   0.151   9.320   9.713
    5        0.241   0.151   9.320   9.713
    6        0.238   0.147   9.323   9.708
    7        0.252   0.158   9.313   9.722
    8        0.253   0.158   9.313   9.723
    9        1.834   1.402   0.139   3.374
   10        1.835   1.399   0.139   3.373
   11        1.833   1.401   0.135   3.370
   12        1.835   1.398   0.139   3.373
   13        1.834   1.402   0.139   3.375
   14        1.834   1.402   0.138   3.374
   15        1.833   1.402   0.136   3.371
   16        1.834   1.401   0.138   3.374
   17        1.518   2.743   0.012   4.273
   18        1.518   2.742   0.012   4.273
   19        1.514   2.742   0.017   4.274
   20        1.518   2.742   0.011   4.271
   21        1.518   2.742   0.013   4.273
   22        1.514   2.742   0.017   4.274
   23        1.519   2.742   0.012   4.272
   24        1.518   2.742   0.011   4.271
   25        1.516   2.744   0.015   4.274
   26        1.515   2.743   0.015   4.272
   27        1.513   2.748   0.016   4.277
   28        1.517   2.746   0.012   4.276
   29        1.517   2.746   0.013   4.276
   30        1.514   2.743   0.015   4.272
   31        1.513   2.748   0.016   4.277
   32        1.516   2.744   0.015   4.274
   33        1.513   2.748   0.016   4.277
   34        1.516   2.744   0.015   4.274
   35        1.517   2.745   0.013   4.275
   36        1.515   2.743   0.015   4.272
   37        1.513   2.748   0.016   4.277
   38        1.517   2.746   0.013   4.276
   39        1.516   2.743   0.015   4.274
   40        1.514   2.743   0.015   4.272
   41        1.519   2.742   0.012   4.273
   42        1.518   2.742   0.011   4.272
   43        1.518   2.743   0.012   4.273
   44        1.514   2.742   0.017   4.274
   45        1.514   2.742   0.017   4.274
   46        1.518   2.742   0.011   4.272
   47        1.518   2.743   0.013   4.273
   48        1.519   2.742   0.012   4.273
tot         65.136 100.220  76.098 241.454

 BZINTS: Fermi energy:    2.098488;  352.000000 electrons
         Band energy:-0.745738E+03;  BLOECHL correction:    0.000000